>compound Ifosfamide M+H
>formula C7H15Cl2N2O2P
>parentmass 261.0320961620905
>ionization [M + H]+
>InChI InChI=1S/C7H15Cl2N2O2P/c8-2-4-10-14(12)11(6-3-9)5-1-7-13-14/h1-7H2,(H,10,12)
>InChIKey HOMGKSMUEGBAAB-UHFFFAOYSA-N
>smiles O=P1(OCCCN1CCCl)NCCCl

>ms2peaks
106.040367 20.26667
179.392197 31.03553
184.957474 63.397202
189.088608 3.185606
190.5616 5.8
196.022278 5.88587
197.021942 19.090281
223.897995 4.333333
225.055588 546.993103
225.154282 6.005556
225.462372 5.015
225.606735 4.640152
226.147186 8.013888
226.696838 7.333333
247.037445 125.542198
281.311432 10.49342
281.447906 5.358974
281.704773 6.716667
282.498657 11.82692
282.731049 11.48302
283.013275 1226.477051
283.167572 10.37255
283.289337 12.64198
283.341797 12.36925
283.43576 12.29493
283.484161 26.59004
283.537567 4.669445
283.705811 16.567711
283.816559 6.001263
284.05719 6.98077
284.663574 7.382936
285.512878 14.66731

>ms2peaks
120.006119 76.926231
120.018456 16.00379
140.971436 33.326672
197.024429 174.142197
197.144058 24.853399
197.280807 9.171748
197.388474 6.160715
222.925446 3.041667
223.71106 6.673611
224.239502 7.592593
225.054642 276.577515
225.180069 6.691667
225.337402 18.897301
225.530319 17.545191
225.56308 2.893518
225.587662 22.681339
226.655731 33.42672
228.188278 3.640152
283.009003 15.83829
284.090393 8.224999

>ms2peaks
104.026878 29.87706
105.992416 71.553719
106.007164 41.946442
119.497017 12.29167
119.879517 8.765873
120.02195 137.233597
120.051003 1.720238
120.058563 15.74679
120.115791 13.47704
120.172989 3.028846
196.758392 8.647059
197.019104 32.9879
197.387146 13.1201

