>compound Methylprednisolone M+H
>formula C22H30O5
>parentmass 375.2166005120905
>ionization [M + H]+
>InChI InChI=1S/C22H30O5/c1-12-8-14-15-5-7-22(27,18(26)11-23)21(15,3)10-17(25)19(14)20(2)6-4-13(24)9-16(12)20/h4,6,9,12,14-15,17,19,23,25,27H,5,7-8,10-11H2,1-3H3
>InChIKey VHRSUDSXCMQTMA-UHFFFAOYSA-N
>smiles O=C1C=CC2(C(=C1)C(C)CC3C4CCC(O)(C(=O)CO)C4(C)CC(O)C32)C

>ms2peaks
250.068268 14.50417
394.581909 15.81627
394.638458 24.002529
394.716278 49.901878
394.786499 45.714901
394.831787 15.70519
394.865601 11.95115
395.730957 7.041667
395.917816 3.336538
396.541046 16.44676
397.198792 2716.9729
397.273041 10.07222
397.315338 6.030093
397.372986 26.232019
397.407501 9.700269
397.438934 43.54097
397.474701 8.857142
397.585236 9.533334
397.636383 5.673611
397.664124 18.386749
397.740448 6.686274
397.816193 21.12579
397.923492 9.692677
397.994263 8.506945
398.075195 9.711021
399.921997 4.408333
401.952393 4.761905
415.206757 6.633772
585.299072 59.160629
766.227234 13.76832
766.335999 20.48736
766.39093 26.002541
766.490356 17.63456
766.555481 8.081897
766.612427 6.333333
766.687927 6.932018
766.792542 40.27673
767.257507 7.408333
767.335938 31.800831
767.450989 26.34325
767.653076 7.350877
767.918213 14.85417
768.603699 6.1875
768.704041 10.85799
769.668884 6.674242
771.293945 65.479202
771.407166 4896.950195
771.53302 2.083333
771.590698 54.216751
771.631042 24.278709
771.714661 90.059372
771.827942 90.804581
771.908264 21.65518
771.955444 10.1131
771.993469 130.053696
772.023193 21.70248
772.136902 107.116096
772.351624 12.34946
772.770142 4.333333
773.331116 8.816667
773.559998 17.960039
773.660095 11.71415
773.873047 14.83712
773.9505 15.97222
774.619263 13.71514
774.802185 5.858334
775.045349 4.225
775.242981 5.75

>ms2peaks
393.218262 20.6276
394.598663 10.50347
394.732361 7.811274
394.762665 3.335784
394.783386 3.333333
394.838715 14.66764
394.905853 6.075
394.942383 2.666667
394.969666 7.688726
395.011536 9.0
395.04361 7.854167
395.129517 2.416667
395.434509 10.66667
395.492218 17.871799
395.595062 15.68174
395.647888 30.396629
395.66864 7.173851
396.312561 7.684524
396.395599 4.120098
396.519592 15.30682
396.811279 9.024224
397.197693 8337.176758
397.279938 88.762207
397.310669 13.33654
397.341827 23.06204
397.373077 35.72506
397.402924 13.7375
397.442627 20.866671
397.465118 28.167681
397.507294 90.317581
397.543488 66.870529
397.567627 94.754997
397.589111 47.028809
397.61557 16.394609
397.658966 52.01437
397.688171 28.07049
397.727234 20.0704
397.768768 54.677811
397.811829 84.462959
397.839172 33.368351
397.902039 23.45463
397.937927 27.32692
397.975525 42.268929
398.115204 15.95476
398.247192 2.708333
398.861206 21.441759
399.080017 7.98077
399.101471 12.68297
399.560303 5.088768
400.05777 27.41667
400.201508 5.041667
401.749908 10.46558
401.837708 19.1276
402.214142 3.677083
766.439087 12.43011
766.651001 8.035714
771.40863 812.092896
771.499939 39.433998
771.70697 9.986111
771.781494 12.69254
771.851135 17.85828
771.967651 19.633751
772.093445 17.405001
772.252136 8.551471
772.56488 6.741667
772.828125 3.34375
772.881897 16.231319
773.34082 9.80303
773.640747 11.75146
776.808105 10.33333
777.487 12.34131
805.136047 5.75

>ms2peaks
281.191864 19.693451
310.190247 36.207111
391.465607 5.76923
393.174469 9.677381
394.427795 13.46371
394.652069 7.009615
394.672913 9.559524
394.81012 20.73488
394.832794 47.509762
394.887085 1.666667
394.907837 10.69345
394.99057 12.21491
395.004639 6.335784
395.030792 5.265351
395.276581 3.560185
395.295197 9.688597
395.371185 21.337851
395.45639 3.640152
395.627594 11.20427
395.772461 8.667683
396.735413 39.886902
397.019226 16.73687
397.197723 6466.138184
397.281586 42.52298
397.310394 7.025641
397.34787 82.533157
397.413513 52.29427
397.44696 90.646629
397.469635 19.347219
397.490723 5.04529
397.551178 20.055559
397.579956 14.38333
397.60968 34.859631
397.642975 28.71154
397.713165 8.625
397.805939 10.71408
397.826813 6.816667
398.002991 27.40435
398.059052 43.988529
398.081726 34.80769
398.171082 30.30076
398.304779 18.93391
398.472565 18.336309
398.496735 16.35088
398.523712 17.280041
398.777405 26.64551
399.061646 30.98333
399.108429 14.23141
399.328644 6.708333
399.643768 4.44079
399.700531 5.333333
401.188995 3.094697
401.412201 2.4
402.193512 10.0732
403.792053 3.047619
463.796387 7.190217

