>compound Ramipril M+H
>formula C23H32N2O5
>parentmass 417.2383985760905
>ionization [M + H]+
>InChI InChI=1S/C23H32N2O5/c1-3-30-23(29)18(13-12-16-8-5-4-6-9-16)24-15(2)21(26)25-19-11-7-10-17(19)14-20(25)22(27)28/h4-6,8-9,15,17-20,24H,3,7,10-14H2,1-2H3,(H,27,28)
>InChIKey HDACQVRGBOVJII-UHFFFAOYSA-N
>smiles O=C(O)C1N(C(=O)C(NC(C(=O)OCC)CCC2=CC=CC=C2)C)C3CCCC3C1

>ms2peaks
102.055542 174.258408
103.263405 10.74074
105.069466 29.7803
110.095581 146.996796
110.272209 16.841181
111.100792 85.980652
117.046623 18.30876
117.069801 724.022278
117.11525 11.13286
117.266174 19.49354
118.072578 560.036804
118.330666 10.14286
118.395012 8.68883
118.512444 10.73253
118.785225 10.01389
129.544785 11.18534
129.861649 9.642095
130.086273 1717.000977
130.215042 22.151251
130.229782 8.670455
130.303238 8.791667
130.360825 11.02216
130.3927 13.85494
130.615173 9.280702
130.639267 8.755208
131.089371 568.137695
131.623001 12.01603
132.222366 10.67064
133.389023 10.67014
134.096664 691.43927
134.12767 8.090909
134.148819 10.71429
134.169632 8.702381
135.0979 360.857788
135.253784 10.625
138.093124 73.18837
143.378693 15.67867
145.082748 66.912483
154.883789 18.285721
155.330139 7.969086
155.484589 13.03728
155.598984 8.066667
156.101212 2460.833984
156.228867 19.68371
156.249863 14.60562
156.381454 9.490196
156.415634 13.77174
156.50676 9.116667
156.546448 11.53846
157.200043 18.669121
157.361465 9.136261
158.102676 43.299381
159.085571 24.68816
159.850098 33.586712
160.111771 1093.744995
160.193268 9.04344
160.214661 12.18673
160.228577 8.755435
160.633896 10.20833
161.066559 56.69006
161.115128 1205.963013
161.256454 10.675
161.505417 15.32655
162.499939 10.71354
162.872696 11.3447
162.917221 13.67262
166.084778 37.466671
166.542664 10.04167
185.098602 11.34099
185.519196 11.01389
188.103928 26.22838
188.574646 11.04598
189.110077 16.33415
201.182083 16.08333
204.609863 19.301941
206.110855 29.026819
206.152634 100.4105
211.109726 18.712641
227.097717 23.52002
230.447922 12.67302
231.755341 19.493589
232.633224 15.04348
232.698196 23.75
232.73674 18.226851
232.763062 7.857143
232.788589 20.319441
232.807785 29.419121
232.856979 106.353798
232.90451 20.441441
232.920059 51.404579
232.973907 9.028153
233.180115 44.0779
233.344437 10.44048
233.36171 13.00076
233.583755 10.70833
233.707275 9.347826
233.719849 18.148331
233.731827 10.2803
233.757675 8.343469
233.770996 19.33712
233.785751 26.81962
233.834991 183.694702
233.896973 28.123461
233.957306 8.342949
233.989319 41.399139
234.010452 13.00397
234.028702 14.10294
234.077881 31.58021
234.108139 23.028151
234.148605 19667.910156
234.213409 171.812805
234.233917 63.712921
234.26004 126.516602
234.304153 42.931511
234.321808 44.759159
234.357346 11.36742
234.380203 122.507103
234.402847 105.875298
234.428375 194.293594
234.448776 86.034889
234.465591 93.808197
234.484863 31.43128
234.504395 164.104797
234.528885 21.55864
234.567673 103.5364
234.603363 142.451294
234.630341 42.934559
234.648712 67.198181
234.697723 45.929291
234.783554 14.21338
235.015045 23.911579
235.102844 19.01766
235.152298 30453.619141
235.288086 21.208941
235.308563 19.66667
235.327728 128.607193
235.352249 91.173553
235.364563 53.83086
235.408508 83.902008
235.522354 109.786903
235.538757 59.79034
235.566406 75.912613
235.583786 44.633801
235.624939 19.075621
235.673828 50.492599
235.686081 55.22282
235.699722 41.849289
235.738174 128.098099
235.77301 51.209091
235.78653 18.2272
235.804794 26.968769
236.834213 10.0
236.898407 15.7947
237.134125 9.708333
237.23056 13.35161
237.380615 8.712037
237.490509 8.5
238.405441 35.333778
239.136017 23.18152
241.855667 8.833333
255.06485 18.133329
257.187714 8.280303
259.198761 17.36474
269.004181 47.7089
273.162994 71.930702
280.147705 89.209923
290.68277 52.795212
291.39798 38.583328
298.198029 117.653198
341.616272 21.033449
342.027374 10.71646
342.156067 7.679598
342.188385 10.05235
342.261322 23.519609
342.465027 13.3536
342.484833 11.93895
342.89212 16.1875
343.148041 57.335892
343.201477 1057.133057
343.289581 10.74898
343.315033 16.42391
343.455841 7.898148
343.600952 7.458333
343.670532 8.41565
343.844116 37.144051
344.056213 22.377729
344.143646 96.744728
344.204071 5900.638184
344.304321 22.92733
344.328125 13.01042
344.389862 33.312801
344.412231 47.476669
344.432983 17.53846
344.498779 20.49745
344.523804 28.67222
344.573059 20.69253
344.603119 27.046249
344.697784 12.48761
344.744385 56.705372
344.865326 14.63516
344.954651 27.471491
344.975952 10.82372
345.127594 11.48761
345.427734 17.456791
345.885742 9.688597
346.22049 38.958328
346.300232 12.24537
346.954163 22.36886
347.50705 9.375
348.186462 16.480391
348.478485 12.07181
348.811707 31.1873
354.184174 15.33712
356.716522 41.766232
409.456573 14.20167
409.792328 17.035919
410.534149 35.05555
410.899292 10.72727
411.865967 13.69345
412.065308 11.85965
414.236786 14.82095
414.326782 19.384489
414.494934 14.63516
414.652008 8.355556
414.714478 11.70588
414.85788 11.67803
415.007355 19.427219
415.304596 22.37957
415.329529 25.633329
415.356934 31.985121
415.461121 69.621933
415.496368 28.67647
415.521759 220.362
415.558197 41.164471
415.579559 67.509438
415.617493 316.320892
415.648712 193.128601
415.696777 65.268646
415.716644 294.939301
415.754028 416.681885
415.809326 326.861786
415.849304 180.0569
415.893982 163.688095
415.929626 49.51778
415.968384 243.940399
415.997864 241.941299
416.06012 154.0327
416.099701 163.022797
416.169098 253.989197
416.42984 36.683331
416.517578 10.80303
416.580292 70.708748
416.678955 57.363892
416.745056 27.14295
416.832397 265.1604
416.911438 151.873703
417.043915 15.02885
417.132324 287.407013
417.237335 679.268494
417.311615 83.498741
417.342773 21.346769
417.387024 19.584261
417.464691 39.273209
417.501862 41.54039
417.548798 24.145941
417.669495 60.241959
417.791534 36.255951
417.85968 122.926804
418.017059 7.560484
418.05481 27.49777
418.081055 18.102079
418.242737 240926.5
418.89978 156.650299
418.923492 183.745102
418.966217 436.217194
419.024902 418.087311
419.083435 180.900101
419.112244 196.416107
419.13916 180.9534
419.176025 166.194794
419.30603 124.6595
419.334595 23.347759
419.372498 277.276398
419.441803 30.03676
419.560944 197.769699
419.658752 252.244202
419.726898 90.739113
419.791534 148.695099
420.00238 44.039261
420.196594 113.545502
420.411713 49.010681
420.446014 155.204407
420.503784 94.938492
420.596313 91.535004
420.76181 18.705759
420.876526 53.6744
421.031311 15.00076
421.062592 44.542961
421.138214 13.01149
421.231049 15.08545
421.340149 20.14822
421.539703 60.613739
421.845673 20.43709
422.017181 24.619499
422.16452 50.726669
422.202362 15.39682
422.238342 18.72794
422.603027 10.03157
422.695129 17.03532
422.804443 35.766258
422.917664 9.041667
423.001587 22.416031
423.325775 10.22685
423.597717 10.3373
423.666443 12.60556
423.690735 25.683809
424.057831 7.490385
424.360443 27.83333
424.500366 14.67029
424.839386 40.422668
424.916229 31.001671
425.240295 22.408541
426.221924 18.648439
426.45163 8.678572
426.769775 19.911619
426.869781 21.44907
427.012756 14.33395
429.092865 23.391029
429.555542 40.88768
432.081482 8.066667
434.178802 10.1131
437.223816 10.21491
437.47113 12.93056
443.670929 14.58333
447.197052 16.455811
454.834167 17.00321
467.858032 12.01282
470.746124 13.26453
478.924072 13.00154
485.724121 10.10526
553.374756 8.037037
565.30542 10.61404

>ms2peaks
101.664665 16.37833
102.054039 1012.294006
102.177483 11.97348
102.23423 8.445988
102.251297 10.33468
102.329727 6.160088
103.104378 11.89855
105.065773 77.565437
105.163155 45.81459
106.068939 22.370609
110.096001 714.764709
110.242874 10.05235
110.249947 4.802778
110.371117 15.02778
110.391609 6.458333
111.100296 254.390793
111.201965 12.15648
111.246048 17.763161
111.33197 15.30029
111.628067 11.82315
111.832069 12.78947
115.050964 65.453339
116.057083 49.90477
116.532425 5.444445
116.582001 43.720558
116.600082 7.335784
116.664032 7.075
116.701538 7.605556
116.855591 12.3447
117.069481 3516.823975
117.116661 20.065241
117.136459 26.169649
117.16713 25.07954
117.199165 13.44599
117.216919 16.36842
117.231987 6.355556
117.283447 21.18528
117.307335 7.005556
117.327095 22.0151
117.375168 15.02679
117.390305 12.44983
117.420418 17.48571
117.443398 11.73485
117.458099 10.73284
117.503349 13.93548
117.510895 13.69792
117.538315 12.74359
117.653206 66.427803
118.028114 14.34615
118.073761 1993.113037
118.118843 7.001263
118.193718 7.469444
118.247429 16.6721
118.258774 8.20119
118.410149 7.666667
118.591934 10.43219
118.712502 10.52273
118.755447 9.680555
119.001434 7.668651
119.084106 150.351593
120.032379 6.306159
120.448975 13.29688
122.876831 27.334061
123.294189 10.96491
128.910721 18.078489
129.40332 15.74167
129.45401 27.148439
129.504456 17.246981
129.516251 7.0
129.539902 15.84118
129.581192 14.76961
129.722107 10.66745
129.831741 15.17782
129.908401 6.75
129.99205 8.45
130.008377 8.595239
130.06691 31.116381
130.08609 12852.55957
130.134918 121.723999
130.150391 30.33802
130.178268 24.744049
130.190353 15.70833
130.229797 36.751881
130.258377 26.68165
130.268326 50.142151
130.290955 16.578251
130.299683 31.96034
130.320236 10.96354
130.333588 19.680559
130.342102 4.854167
130.356857 23.445869
130.368759 15.33409
130.383286 19.68709
130.403397 46.32671
130.416443 5.684524
130.424332 13.98718
130.432327 27.441521
130.452545 11.00595
130.476044 11.18382
130.495911 5.334877
130.502274 18.489599
130.531952 45.014759
130.543594 16.445101
130.567444 15.34524
130.872131 7.1875
130.94516 10.375
131.216217 11.01235
131.28685 4.888889
131.304138 15.12297
131.318451 7.054487
131.369339 11.57353
131.473343 22.313129
131.574509 7.760417
131.690857 6.335
131.84433 9.25641
132.48262 11.35714
133.329544 21.734699
133.360901 8.004167
133.533737 6.075
133.554504 40.34903
133.569885 5.666667
133.97261 19.375
134.096008 4204.073242
134.145462 41.686749
134.177689 6.339743
134.205185 15.08013
134.274445 5.840278
134.302719 12.67269
134.318771 13.3555
134.355072 5.840278
134.371033 28.33333
134.385605 14.27178
134.434799 4.669445
134.44783 7.057692
134.492416 50.444229
134.510361 8.333333
134.520447 13.01965
134.528519 4.345238
134.537094 6.59375
134.549393 20.018841
134.585052 34.776321
134.698425 7.347222
135.099213 2087.837891
135.244202 16.83675
135.280075 9.142858
135.340866 28.015961
135.382858 31.44042
135.433899 5.160714
135.441406 6.107143
135.50676 9.344048
135.575623 11.15705
135.75061 15.0789
135.920151 8.523648
136.027298 7.008333
136.765076 11.92628
138.090149 76.167068
138.360474 10.60093
143.087067 7.815476
144.081589 96.334358
144.203018 11.13286
145.08049 53.89743
146.064697 22.408541
148.080383 50.38998
148.292221 6.7
152.315384 17.323271
154.082916 42.068329
154.762802 20.010139
155.087875 83.583427
155.117752 13.375
155.165329 11.3668
155.250977 11.42803
155.304047 17.0026
155.324753 8.815
155.339798 5.041667
155.380188 77.43763
155.716171 7.391666
156.076706 9.350877
156.101959 7272.737793
156.154648 74.96833
156.174789 10.2521
156.206375 21.67099
156.231064 24.880489
156.24646 12.77632
156.259094 11.69231
156.284164 23.11343
156.29747 44.117691
156.34935 36.043369
156.394135 10.41346
156.402847 7.0
156.412415 9.313725
156.42894 33.714378
156.44635 14.41879
156.465927 13.75
156.494492 9.088768
156.51535 52.60128
156.533875 9.958333
156.546448 5.666667
156.555573 16.710779
156.57724 27.086941
156.631653 25.8866
156.696381 15.3577
156.752991 27.196079
156.768509 6.444445
156.810959 4.888889
156.923508 33.042221
156.990738 7.383333
157.04306 12.37281
157.105133 4294.157227
157.178055 11.73707
157.200043 19.117519
157.224106 19.69562
157.270203 6.673611
157.296371 53.77774
157.339142 9.813406
157.378998 22.849751
157.409653 12.03354
157.473389 30.488079
157.501175 11.30682
157.55249 26.54118
157.579742 18.828409
157.607925 11.92593
157.645599 15.0163
157.655212 21.483801
157.831787 9.484849
158.004501 24.10677
158.334305 7.802778
158.962097 6.531863
159.070724 5.541667
159.237274 9.884804
159.276917 17.56214
159.323074 9.37037
159.335815 5.017857
159.410492 7.378623
159.42804 5.71627
159.453156 8.523551
159.545059 4.721154
159.937988 10.02422
160.111771 6062.117188
160.164062 57.23101
160.182953 12.73306
160.200165 12.67421
160.224564 22.10811
160.254211 33.258282
160.285889 17.158899
160.303375 15.00064
160.318283 45.02919
160.356354 9.724359
160.392365 5.444445
160.434357 27.183941
160.449081 45.851768
160.492859 23.630301
160.541092 34.24086
160.581604 6.107143
160.598618 6.334677
160.607437 19.025419
160.770752 7.173611
160.898804 15.02083
160.925247 26.71748
160.939285 16.0732
160.982407 10.05518
161.058243 79.067093
161.07074 14.78667
161.11467 4674.527832
161.169785 26.67523
161.212021 5.013889
161.235809 10.10897
161.271774 16.23148
161.335724 4.37037
161.349091 6.25
161.384338 21.00421
161.41011 19.237761
161.427109 19.975309
161.479706 7.84375
161.516937 7.666667
161.636459 30.667919
161.680893 10.0
161.760208 13.0
161.82164 9.868333
161.911072 15.23978
161.994888 6.927469
162.322678 14.06349
162.469513 15.65476
162.566818 12.35526
162.739517 9.728536
163.132278 193.682297
163.312653 10.81944
163.681808 8.647059
164.003296 20.12821
165.042068 6.364899
167.081985 28.543859
167.315933 10.62963
171.463135 7.520833
174.345108 23.19342
182.121399 49.803261
182.203903 13.09677
182.397522 41.340279
183.122055 27.086809
184.095627 38.46944
185.101257 217.785797
188.103577 29.000481
188.487503 8.932017
188.574707 15.01437
189.108566 62.340778
189.33107 5.025641
190.097412 14.48981
203.075912 16.31373
205.022751 5.675926
205.143921 18.01827
205.232025 4.349638
206.035217 6.366667
206.117569 201.8302
206.151413 565.421326
206.404892 11.11538
206.474869 11.3375
206.750717 7.111111
206.874985 12.05556
206.885773 5.333333
207.119659 514.371399
207.4021 5.787037
207.676361 8.240196
207.746872 11.96296
207.881622 12.84314
208.152878 9.732527
209.253555 13.66975
214.596481 16.46944
216.133362 16.69467
223.674942 7.813406
227.491119 22.60331
227.805603 11.48761
230.728638 15.22075
231.367676 4.844298
231.4048 8.347826
231.669479 10.38313
231.706833 28.84506
231.722519 43.334641
231.796585 16.667311
231.838959 8.0
231.902542 8.920045
232.34462 13.64209
232.358368 11.68792
232.518173 54.658581
232.569977 11.35
232.603149 10.29643
232.623581 7.360043
232.654312 10.11111
232.66745 104.048897
232.684265 25.45833
232.704224 64.1828
232.71817 56.773899
232.737228 51.505001
232.772842 148.224304
232.795532 154.3582
232.820709 31.4221
232.834137 122.105698
232.866943 143.748993
232.898193 36.64957
232.91716 90.660767
232.950806 58.708241
232.990326 135.591904
233.032745 18.207991
233.059052 19.84127
233.073135 38.034191
233.09169 9.408334
233.116653 106.697098
233.132462 6.668651
233.153732 12.36742
233.235382 50.925831
233.25647 16.86581
233.37233 16.682211
233.385269 41.629131
233.436111 6.682971
233.45755 55.168549
233.483948 19.668699
233.55188 27.577379
233.586121 25.8857
233.686249 48.75819
233.727844 90.493973
233.756058 61.643829
233.816498 82.375
233.870499 237.290497
233.903107 340.617493
233.930908 40.682621
233.946976 99.416603
233.961594 92.817451
234.018097 192.605392
234.049652 72.870369
234.063126 19.335779
234.094345 397.153107
234.149384 82685.210938
234.535065 129.009293
234.55545 80.082047
234.572693 105.633598
234.636154 42.243469
234.6642 74.809067
234.694946 113.239304
234.714844 13.76535
234.740494 124.188698
234.767563 93.415756
234.793442 45.67437
234.827484 76.456207
234.848099 61.189758
234.890106 18.863819
234.924164 32.73951
234.943176 65.859703
234.963226 42.687649
235.040512 47.593269
235.10791 93.46685
235.152527 131552.09375
235.636154 172.033096
235.669083 70.999931
235.709274 177.873199
235.742416 87.544807
235.760376 223.889893
235.773483 73.705269
235.801529 127.440002
235.826584 136.251495
235.84343 54.637939
235.88356 75.018547
235.933365 32.354019
235.964401 158.656998
235.997574 83.146393
236.017639 84.52594
236.045181 86.361954
236.074066 129.498001
236.288437 14.67778
236.360992 79.490517
236.397339 52.3894
236.433792 77.071877
236.476059 21.925489
236.504669 21.600929
236.524521 69.150719
236.585022 18.315149
236.613541 15.12963
236.626526 7.375
236.654282 6.148809
236.682587 36.186611
236.893448 34.191181
236.943558 40.602051
237.087509 17.094931
237.13414 9.783046
237.19696 64.367912
237.214966 15.50508
237.236023 26.138
237.284256 7.777778
237.317245 34.398941
237.493195 11.8642
237.598129 47.700008
237.668198 29.66848
237.743591 18.55278
237.846893 4.388889
238.278702 25.46944
238.38884 8.380952
238.456238 15.52115
238.507553 6.335145
238.542542 5.916667
238.615204 14.80303
238.658661 14.36754
238.701187 11.20119
238.760147 7.102564
239.081177 16.33532
239.17984 4.531863
239.228043 5.013889
239.265732 6.422222
239.517807 13.33333
239.546356 4.963235
239.567352 7.625
239.658829 15.13611
239.991913 5.6875
240.059753 13.48333
240.095413 17.01136
240.241226 14.32
240.266083 5.449074
240.395447 10.15705
240.477509 10.66667
240.818008 7.671053
242.040482 20.63377
242.115433 10.35088
242.207458 5.001812
242.624527 9.122549
243.622635 16.02206
245.505035 11.3391
249.18721 4.66886
254.766037 5.88587
268.439972 5.041667
272.154755 99.854858
272.169922 26.493361
272.992218 6.760417
273.168365 53.595551
274.631866 9.631173
280.150055 73.215523
280.188568 4.720238
281.15686 33.81905
281.787994 5.009259
282.904907 10.16329
283.385529 5.157052
298.198029 24.52002
302.965698 25.0
340.967834 6.075
341.017151 5.541667
341.232727 7.280303
341.763733 28.33415
342.011383 62.014591
342.112793 45.853329
342.139984 42.338531
342.186859 27.250099
342.221191 31.48023
342.304535 7.763889
342.346344 34.32206
342.432831 11.33654
342.462189 16.10294
342.800049 11.34028
342.829254 10.09091
342.972687 48.02182
343.06073 141.073303
343.202576 3161.790039
343.276672 14.66667
343.309662 11.7963
343.328339 11.92064
343.372101 15.10526
343.397675 183.560699
343.440094 98.734558
343.506226 14.87628
343.54422 5.958333
343.579681 6.355556
343.631287 5.742284
343.650635 8.560185
343.689331 9.450582
343.714752 29.579479
343.786133 18.66975
343.854401 16.966961
343.919403 34.708328
344.037689 6.022223
344.08905 32.027779
344.124908 72.217827
344.147339 8.002192
344.169861 142.6362
344.204651 23004.400391
344.281647 71.446129
344.310944 98.367981
344.344788 43.05875
344.365112 38.166672
344.481598 87.749481
344.512115 45.5135
344.534424 100.871597
344.563782 108.065002
344.60907 40.276909
344.646332 86.447433
344.708221 76.604393
344.766113 116.912598
344.846405 74.566803
344.871857 49.13858
344.939728 34.918861
344.966553 59.579411
345.115784 100.224998
345.15448 20.752119
345.494598 69.706177
345.782166 10.6796
345.918152 14.90278
346.034363 13.58954
346.151215 17.722019
346.48114 7.2
346.592194 15.65333
346.921631 8.008333
347.972137 15.49389
349.941223 4.35307
351.918488 18.673479
358.025085 32.009918
390.208252 54.39167
400.229401 12.20833
413.224426 28.48324
415.358368 21.89286
415.44519 16.26045
415.510468 32.341751
415.568756 67.47699
415.601837 45.276211
415.696045 64.550034
415.727051 50.06945
415.766083 20.088449
415.812927 21.805981
415.851471 134.192505
415.904938 34.29808
415.941284 33.735142
415.988434 11.29784
416.01532 56.988708
416.035034 48.219749
416.079132 23.762449
416.12265 71.40535
416.156464 101.127899
416.288788 52.04393
416.462097 58.78875
416.662659 9.25641
416.756989 29.699089
416.809937 17.085939
416.884979 26.508829
416.926849 37.588291
417.076813 16.43211
417.23584 82.738403
417.320953 19.89963
417.405579 14.29167
417.516174 9.840278
417.611725 115.243896
417.686371 5.583333
417.713104 10.08333
417.782349 7.761905
417.839264 11.68056
417.983459 13.7219
418.066895 15.08333
418.242401 39339.371094
418.482056 188.331299
418.51709 39.822769
418.5448 104.962196
418.579834 112.467201
418.647888 232.873001
418.719849 188.932007
418.770813 173.624405
418.8461 34.08284
418.880829 157.385803
418.934631 95.866943
418.967285 87.289337
418.996002 28.80208
419.028625 117.303902
419.113342 135.442398
419.308563 109.694504
419.34314 119.776398
419.740906 11.89851
419.982361 25.402399
420.133606 25.30682
420.194763 8.740942
420.415894 8.928572
420.616821 9.272223
420.740265 21.696779
420.90979 17.66927
421.016876 19.700951
421.578918 13.85965
421.80957 6.340909
422.731781 11.66667
422.984924 15.03409
423.303833 8.853395
423.876923 12.8869
424.184814 11.20119
424.199371 9.05
426.816254 15.44599
426.943176 13.81349
428.941559 7.001016
429.064026 6.399193
436.794678 9.00463
476.771942 11.04545
569.207825 7.391026
933.687622 6.482143
1176.889648 7.009615
1379.565552 6.98077

>ms2peaks
101.543907 9.300439
101.587669 20.58424
101.615211 17.84375
101.648468 8.856061
101.674545 19.45455
101.685715 11.00439
101.692619 8.160256
101.808533 15.3869
101.842133 8.798913
101.954788 3.375
102.055222 15080.519531
102.091019 93.746132
102.09848 71.650673
102.11335 17.592951
102.125458 15.90525
102.141212 3.266667
102.15799 24.51598
102.172691 12.58712
102.181625 52.355042
102.191757 7.041667
102.207787 67.982582
102.231667 31.2619
102.247139 21.77466
102.27784 19.35
102.286659 16.371861
102.293518 10.08681
102.31739 28.052691
102.330467 10.375
102.349266 13.6713
102.36097 68.490936
102.3815 17.03241
102.400307 14.00915
102.416702 8.672619
102.463776 6.35
102.483238 5.671297
102.518829 5.041667
102.52549 2.694444
102.532921 10.48333
102.556152 15.68056
102.577347 20.983761
102.611626 8.027778
102.678246 23.5641
102.754967 8.753205
102.889023 15.65278
102.961388 36.123199
103.125298 5.19853
103.231598 8.442983
103.41909 19.797621
103.444847 6.533333
103.560501 9.428572
103.638481 5.729167
103.748146 10.99212
103.806717 4.297619
104.105171 9.453704
104.167145 19.799999
104.301727 15.76956
104.473129 8.223765
105.069519 909.927917
105.113464 5.690476
105.183022 6.791667
105.216919 7.06586
105.263313 7.716667
105.329361 5.5
106.073555 318.831207
106.239983 6.012931
106.455238 5.334877
106.738991 12.76179
107.656937 6.564815
108.080673 103.282501
108.25029 5.840278
109.455299 6.348333
109.466026 14.05762
109.560875 13.77844
109.579086 6.338889
109.622787 14.02371
109.630081 16.14423
109.757668 13.49135
109.800674 25.222759
110.096619 5395.787109
110.138481 22.15159
110.159378 14.62037
110.175522 20.679489
110.184723 39.604488
110.206367 6.366667
110.220963 16.0056
110.231911 8.240196
110.245689 8.598684
110.261459 6.541667
110.283058 5.415
110.315948 16.161619
110.339233 10.27222
110.367104 3.047619
110.38324 7.136111
110.396347 15.2381
110.416649 19.4086
110.432899 8.334596
110.452087 10.03788
110.494545 34.368279
110.535286 5.0
110.559715 17.92905
110.604462 6.481482
110.6231 8.016305
110.721901 14.81481
111.099701 2062.199951
111.145248 23.108431
111.235336 7.8
111.267982 15.375
111.286362 14.02083
111.36879 4.003205
111.4561 7.190217
111.466255 13.0498
111.486664 17.39255
111.521362 11.35459
111.708817 5.840278
111.978188 8.966954
112.07711 48.342709
112.559792 5.037037
113.078873 41.17593
113.27433 6.160088
114.397919 4.033333
114.438324 7.939394
115.053795 530.603516
115.307632 9.455882
115.346344 26.177629
115.449623 12.33333
115.610947 28.339291
115.651917 10.57615
115.906273 44.89616
116.057564 310.200714
116.086235 8.011905
116.180313 8.402778
116.340187 124.848503
116.360878 18.818939
116.386009 11.15705
116.419853 21.42206
116.435066 10.64841
116.44265 34.087421
116.452736 26.74008
116.477196 41.752079
116.498627 9.395202
116.508492 60.099628
116.521156 7.728535
116.539444 37.50267
116.562248 29.09038
116.586174 54.205429
116.617233 14.66821
116.626152 22.029449
116.638306 45.93428
116.657265 45.934811
116.675179 7.058333
116.686317 17.36458
116.724037 5.022059
116.787621 16.044451
116.808105 14.83333
116.829193 17.705191
116.866493 8.895503
116.920532 10.33889
116.952301 23.711969
116.961044 13.85494
116.988846 25.634489
117.013618 4.355392
117.034874 160.541
117.070084 43333.03125
117.195801 42.764759
117.209549 84.665611
117.223396 56.494381
117.23999 18.2027
117.249146 110.0429
117.260597 53.22282
117.27774 13.33658
117.289116 38.749619
117.304657 88.206688
117.315727 131.546005
117.325111 108.936897
117.357658 66.284767
117.366745 13.33333
117.375397 63.428661
117.389503 47.614658
117.410286 120.485001
117.435623 104.293999
117.460976 54.191528
117.469833 19.746691
117.478973 116.371803
117.50679 25.23604
117.513435 46.408329
117.523582 67.130524
117.54821 14.53205
117.557022 17.92308
117.564636 51.770241
117.588348 65.439377
117.614937 21.947069
117.636368 60.13311
117.663788 34.586239
117.671349 26.186991
117.689766 21.667681
117.698822 21.073231
117.737206 12.725
117.76133 28.856039
117.775063 12.68003
117.816559 6.334677
117.909088 6.291667
117.926826 18.34259
117.962128 23.20833
117.994659 13.30183
118.073349 24874.650391
118.12059 359.321503
118.132523 84.926949
118.155731 136.977295
118.166473 65.448723
118.17971 10.35119
118.186943 11.67857
118.196381 38.62088
118.232826 46.182129
118.251358 21.3529
118.267349 74.0578
118.292931 61.900959
118.371986 83.084686
118.392876 41.163479
118.453484 33.129631
118.486549 17.297621
118.498009 27.6875
118.509834 40.95031
118.526367 31.471411
118.537056 39.13657
118.546745 58.74741
118.576912 14.93667
118.584801 46.421841
118.59951 1.6875
118.607132 9.32545
118.687035 12.17385
118.732658 19.19133
118.754974 20.27212
118.771027 34.3638
118.811523 16.211109
118.823441 21.77598
118.968437 11.70455
119.069992 39.890411
119.080132 173.554703
119.086807 33.294159
119.191696 46.91433
119.210258 8.004167
119.229965 36.791672
119.340973 6.592593
119.384781 2.0
119.405609 23.68729
119.443291 13.61374
119.45591 17.332529
119.643913 7.25
119.650085 6.866667
119.704689 11.82315
119.712219 9.32545
119.792313 12.92014
119.976479 12.89302
120.089211 158.343002
120.172798 6.875
120.409752 15.2381
120.455582 8.125
120.638908 6.678764
120.695938 8.408334
120.815086 6.362179
121.101051 38.021931
121.120842 3.335784
121.620834 5.732571
122.126396 5.633333
123.085205 2.333333
126.655052 6.906746
128.50972 3.266667
128.638718 17.35041
129.065765 32.148159
129.073685 6.668651
129.084961 14.09722
129.097702 36.17775
129.221176 15.78261
129.30661 24.025
129.331497 3.854167
129.347137 15.79924
129.365753 20.667271
129.377609 2.666667
129.390045 71.463379
129.412582 127.131104
129.442535 6.428572
129.449219 7.382936
129.473755 26.000481
129.484009 12.35833
129.499832 37.12413
129.522064 2.833333
129.567627 11.21333
129.599594 30.403681
129.607773 3.083333
129.621414 13.77564
129.630997 6.673611
129.642242 9.75
129.666702 8.284091
129.683441 27.148809
129.698334 7.344697
129.867615 40.355621
129.896561 16.02216
129.932465 6.272727
129.940125 3.380953
129.948059 7.685185
129.970673 13.67361
130.01152 3.669118
130.052795 7.008333
130.086334 41072.699219
130.133865 226.388794
130.186783 171.115204
130.197983 27.33396
130.225372 162.096695
130.241333 71.239319
130.252533 32.888889
130.2733 126.541397
130.286316 31.434601
130.30777 66.344704
130.317139 17.164949
130.33905 19.67803
130.348862 33.683201
130.359009 25.2549
130.373383 111.691002
130.399017 28.08889
130.429825 179.208405
130.451218 43.801208
130.460373 18.41346
130.473633 92.509216
130.480209 27.418791
130.492111 52.816078
130.529297 34.34737
130.540543 89.801033
130.558853 32.063679
130.569992 12.40833
130.580841 31.46759
130.592133 12.89286
130.599274 29.34314
130.609726 12.77976
130.623825 31.11153
130.644958 36.063
130.662399 74.73394
130.69278 15.24038
130.709717 22.94969
130.786362 21.471979
131.013046 11.11725
131.168564 22.444441
131.20787 27.10355
131.245697 17.543591
131.279266 10.04293
131.31488 37.710869
131.329834 20.521139
131.383636 10.89993
131.397736 25.473841
131.409576 32.818939
131.471039 6.541667
131.509155 26.596609
131.550507 20.374041
131.58844 16.002781
131.615082 8.560484
131.626923 12.69823
131.634171 22.108959
131.750793 9.463542
131.850601 15.8652
131.870575 10.00362
131.909607 21.613371
132.02243 13.07716
132.078964 38.125
132.150406 7.186728
132.25032 5.522727
132.290375 4.666667
132.42749 2.791667
132.647583 8.160714
132.663376 4.013889
133.06369 43.019379
133.103867 7.391609
133.314651 17.04003
133.352859 7.719017
133.360901 13.35227
133.380951 7.729167
133.392822 7.787879
133.437241 5.097222
133.461227 6.410417
133.4935 12.34099
133.513596 3.670455
133.53772 4.677083
133.656342 2.625
133.707764 11.94707
133.715164 10.92905
133.770966 5.041667
133.779266 59.297371
133.882858 19.343519
133.963943 12.02193
133.986588 10.38075
134.051468 24.625
134.096161 14162.429688
134.145233 174.623306
134.160233 26.220739
134.179733 63.991489
134.200195 15.16009
134.209885 19.105101
134.241028 54.338089
134.260651 32.245369
134.294952 44.266312
134.313095 119.442703
134.334351 22.15202
134.344345 14.17385
134.365173 11.875
134.384644 39.506439
134.403488 11.335
134.412292 12.10746
134.430222 81.211166
134.446671 35.641941
134.453903 7.333333
134.48201 24.168591
134.492737 88.010239
134.509537 12.69338
134.536484 12.49123
134.545746 18.23214
134.572998 21.339911
134.606277 41.93293
134.624863 34.983898
134.666016 60.5145
134.704575 21.9494
134.750534 16.724541
134.832611 13.81349
134.860962 22.6875
134.932312 2.4
134.968079 10.1875
135.019791 30.02206
135.041992 12.5307
135.075821 60.845852
135.099396 9356.904297
135.192627 11.02083
135.213318 19.5287
135.227478 7.081667
135.263321 19.650209
135.272079 19.703699
135.29422 32.87756
135.300339 4.120098
135.336731 9.004386
135.345093 4.802778
135.370071 16.309361
135.394745 38.751389
135.417694 9.334523
135.453354 68.312462
135.478226 20.916201
135.503235 16.82963
135.542221 10.53561
135.551453 36.179569
135.599228 14.93981
135.604095 4.136111
135.640442 5.346264
135.648544 10.38667
135.680756 3.339286
135.741745 7.388514
135.780502 15.21814
135.92395 14.20417
136.021561 12.74107
136.131119 4.669872
136.228577 5.0625
136.321762 25.753599
136.362595 8.491228
136.38765 15.5228
136.415421 8.337963
136.430084 3.733333
136.595734 17.38294
136.672241 9.630208
136.72847 10.73035
136.757431 9.116667
137.027069 4.761905
137.339325 6.428572
137.359192 18.902781
137.433121 8.523648
137.51062 4.355392
137.547333 9.372808
137.55957 5.341667
137.627731 6.002778
137.91478 8.765873
138.091415 333.163605
138.340057 12.44298
138.40947 13.10887
138.513046 2.893518
138.611984 37.350578
138.646057 2.520833
138.922394 30.96594
139.092896 237.424194
139.212112 28.46722
139.272461 3.75
139.94873 9.688597
140.076492 31.69565
141.066574 21.37089
141.77739 7.358974
143.086349 365.552612
143.12413 4.852273
143.14386 2.0
143.46051 28.226999
144.081909 413.51889
144.157074 3.335526
144.22908 9.711021
144.420349 12.11111
144.890076 8.148809
145.056717 68.659103
145.083618 252.511795
145.156876 3.42803
145.173859 5.088768
145.312042 7.408333
146.060455 52.695332
146.527481 11.15188
147.525482 15.98039
147.733704 13.01293
149.093079 21.896549
153.070267 80.716423
154.082703 213.531998
154.412277 5.088768
155.13501 4.341667
155.178329 8.333333
155.217697 29.53314
155.239014 14.39646
155.247681 9.666667
155.273697 8.024224
155.312332 41.856178
155.395096 18.42478
155.422165 22.98975
155.468826 6.03858
155.48233 7.306159
155.671539 16.625
156.059067 20.049379
156.101013 6016.708008
156.155045 44.171371
156.183701 5.347222
156.19696 28.70048
156.212479 26.405809
156.228836 10.42857
156.246277 18.712959
156.279343 29.18354
156.288605 11.93939
156.302795 9.0
156.341995 31.01786
156.372391 5.71627
156.44635 5.335526
156.459457 26.078529
156.476318 7.306159
156.507401 5.208333
156.526642 25.06896
156.546387 9.267858
156.568726 17.901609
156.642624 6.402778
156.67276 21.70833
156.772873 4.382936
156.81221 8.462821
156.885834 24.839741
156.917831 39.839169
156.976578 7.523551
157.104996 3782.629883
157.139343 52.09116
157.204956 50.01614
157.239304 6.334459
157.25238 6.366936
157.326553 3.336111
157.371674 4.341667
157.440033 5.401515
157.483688 9.469697
157.516434 1.875
157.575058 13.20119
157.601578 12.75347
157.776321 12.3343
157.792542 10.11111
157.853104 8.059091
158.016769 7.724359
158.358688 24.687941
158.560455 6.818182
158.778 12.33333
159.103394 16.67745
159.127731 11.71509
159.164825 8.7
159.215073 2.958333
159.231796 18.01827
159.244278 11.23077
159.254547 22.816669
159.277481 31.747841
159.306961 134.773193
159.322632 7.690476
159.331421 15.33948
159.37178 16.830469
159.397369 8.668859
159.410492 22.871349
159.440018 18.4657
159.460983 9.916667
159.472198 15.45687
159.495605 27.60677
159.514114 15.44551
159.559479 6.606061
159.630249 5.88587
159.652359 5.673611
159.748871 16.057199
159.762054 17.000681
159.923248 8.735
159.978516 15.62972
160.004852 28.08507
160.074417 5.702587
160.111923 22625.320312
160.167297 409.648987
160.184814 49.037201
160.202576 37.079079
160.220566 24.81389
160.244415 44.25034
160.255585 12.32328
160.27359 55.01989
160.312195 18.33333
160.321106 173.053406
160.343369 81.465012
160.365906 129.917206
160.397964 125.149597
160.41275 13.72436
160.427307 133.545303
160.449417 18.02696
160.456055 116.466797
160.481659 55.877209
160.494019 60.32349
160.506012 33.521679
160.519669 11.50718
160.541992 16.006411
160.557556 60.044628
160.568039 31.044609
160.576401 18.01515
160.585388 6.435897
160.59584 17.84375
160.611099 15.84314
160.622055 14.125
160.633896 54.996109
160.670349 11.17763
160.685013 59.615829
160.722733 30.50112
160.761063 41.181931
160.904236 41.464649
161.089447 43.001789
161.115005 19431.369141
161.18663 28.325451
161.224609 121.966904
161.244644 41.64896
161.267258 59.675999
161.290451 40.380531
161.31897 50.8442
161.346161 66.675453
161.411819 72.304527
161.494339 31.403009
161.506638 38.50621
161.526062 19.5947
161.58345 55.46043
161.615585 31.04233
161.69783 45.776958
161.715775 31.692511
161.755783 17.86046
161.866516 22.535709
161.884125 12.05128
161.945389 24.278851
162.03923 29.430679
162.060272 43.042549
162.123169 638.248718
162.14537 6.791667
162.176392 2.016667
162.3582 18.964069
162.499771 20.03582
162.804276 6.680555
162.921616 18.347219
163.016037 17.684521
163.316986 4.007576
163.56221 15.32
163.792358 16.533819
163.81813 19.226191
163.833817 21.19805
164.103683 73.278603
164.389618 8.885869
165.139832 47.864029
166.938019 7.921875
168.104691 82.492844
168.722702 5.001667
171.099701 36.719719
171.631424 2.416667
172.201904 5.480072
177.528976 3.025
178.119095 66.425636
179.125275 47.066261
182.113327 46.847919
183.568314 2.761364
184.093567 63.587311
184.564148 4.001812
184.819458 7.333333
185.248383 3.002451
188.105072 8.041667
188.335846 9.745155
188.459839 3.727941
189.109406 288.479492
189.153137 3.677083
189.296707 6.399193
189.75087 11.71429
190.096741 2.053571
199.754333 40.773392
204.325974 3.668651
205.20015 13.04861
205.965302 6.449713
206.116623 502.170593
206.151566 342.680908
206.180374 8.721774
206.260788 6.966667
206.271545 18.3908
206.414749 20.717039
206.431274 12.79167
206.464874 13.14583
206.68544 10.03704
206.750214 11.20427
207.120041 518.159485
207.350311 13.65476
207.362762 16.58543
207.395691 10.44298
207.471222 6.177631
207.485748 14.33514
207.553543 2.625
207.991211 16.912041
208.338699 9.358974
208.750793 7.656609
209.777252 11.3913
226.148209 10.80474
226.221863 4.166667
227.033218 7.116379
231.172012 12.2838
232.475296 6.98077
232.625381 38.47438
232.708862 17.724569
232.747208 7.344697
232.7724 8.675926
232.798737 17.342859
232.851807 3.010417
232.920135 17.021931
232.959702 19.59269
232.980408 15.47857
233.237595 12.68056
233.283859 13.16346
233.310516 15.48167
233.341263 27.97436
233.526123 13.35897
233.595596 11.00107
233.641693 37.56472
233.686005 4.666667
233.755142 6.341667
233.787155 16.3375
233.813141 62.484921
233.840286 25.51339
233.852875 22.5679
233.894348 53.268101
233.930893 21.29406
233.974579 13.52244
233.999863 19.679529
234.010513 13.35756
234.051804 49.522141
234.069061 17.73303
234.085556 75.849113
234.113205 90.472748
234.148743 8992.013672
234.213135 52.738338
234.232208 51.784039
234.257614 17.86458
234.276138 21.308399
234.297974 17.04879
234.337936 18.681841
234.373932 66.137047
234.447433 22.2873
234.468948 42.511429
234.499969 106.499199
234.513763 22.586901
234.528992 55.202351
234.637787 38.486488
234.666809 17.00629
234.689468 3.694444
234.71402 65.727997
234.763474 29.402781
234.787857 14.00093
234.829346 65.601097
234.87355 7.095512
235.152069 14253.400391
235.21727 127.5569
235.241623 26.900221
235.275375 57.377338
235.295349 65.026413
235.340668 36.736401
235.359634 46.47813
235.401276 59.242458
235.435806 60.659321
235.557739 46.911079
235.584991 14.31894
235.60051 30.408331
235.616333 19.05348
235.635315 15.86667
235.666916 20.730391
235.682663 32.000729
235.704971 26.60215
235.725693 22.123461
235.738541 24.454969
235.783829 41.05463
235.877518 71.416283
235.952225 4.066667
235.990814 34.679539
236.005096 10.14982
236.042404 4.670455
236.487259 29.56027
236.668274 10.38313
236.685516 38.812801
237.723785 7.69482
237.906189 3.011905
238.068222 2.666667
238.426971 13.71011
238.650436 6.266666
238.722504 23.0
239.7341 13.32237
240.542206 8.680555
241.644135 5.413462
247.082886 2.0
265.339569 3.823718
267.206818 15.36915
271.328522 2.6875
272.065613 8.881667
272.162384 61.520012
272.734344 25.19771
273.168121 154.718201
273.757843 1.666667
296.199432 13.73768
297.206146 10.04344
298.07666 11.14682
298.195831 89.126122
342.143188 13.14371
342.194092 16.93667
342.352417 3.833333
342.838531 8.010135
343.20108 118.689796
343.320862 7.020833
343.346832 12.23106
344.204681 802.15387
344.32608 24.608101
344.542877 10.82843
344.645111 9.858334
344.722015 6.520061
344.741302 3.802778
345.059326 5.761364
345.226013 15.80342
345.608337 3.15
346.002106 2.695513
346.050629 5.291667
359.031097 35.10677
442.439789 7.358334
501.802429 13.85714
560.500488 18.879999
760.685181 5.414216
1223.323242 12.42733
1511.896851 15.35526

