>compound ClindamycinHCl M+H
>formula C18H33ClN2O5S
>parentmass 425.18714728809056
>ionization [M + H]+
>InChI InChI=1S/C18H33ClN2O5S/c1-5-6-10-7-11(21(3)8-10)17(25)20-12(9(2)19)16-14(23)13(22)15(24)18(26-16)27-4/h9-16,18,22-24H,5-8H2,1-4H3,(H,20,25)
>InChIKey KDLRVYVGXIQJDK-UHFFFAOYSA-N
>smiles ClC(C)C(N=C(O)C1N(C)CC(CCC)C1)C2OC(SC)C(O)C(O)C2O

>ms2peaks
103.022728 38.02042
110.060814 42.481602
111.100334 42.46944
112.109245 30.86009
118.898926 72.333542
124.110138 195.836105
125.438248 30.79427
125.475731 114.155197
125.486168 47.600281
125.502655 57.884899
125.51181 82.547997
125.540207 44.781509
125.566795 80.542793
125.590637 67.469437
125.617065 40.453362
125.630348 40.39558
125.646828 50.265419
125.675392 30.003969
125.699242 27.24658
125.790169 33.083328
125.840942 30.00036
125.89463 43.526878
126.042076 29.889709
126.083611 40.466671
126.10881 62.963032
126.127831 128571.601562
126.458466 39.08403
126.478798 93.19165
126.501373 152.285507
126.53479 112.029099
126.554718 29.982771
126.566727 74.31794
126.591202 108.107498
126.618538 28.334061
126.640099 77.008057
126.654778 38.403519
126.668732 99.727463
126.705734 27.724291
126.719727 44.89872
126.728516 32.01408
126.738022 35.563148
126.74472 84.762787
126.829514 28.67816
126.841225 34.352089
126.853531 33.875
126.864815 35.353951
127.115425 94.035896
127.286972 38.400391
127.363541 29.37347
127.384834 33.77412
128.440704 25.498289
128.741867 29.53191
135.018707 89.128418
141.150513 34.1856
146.034668 32.19342
171.24118 27.008329
172.132309 323.4888
176.595032 77.920486
198.079163 46.82716
199.119339 34.742649
200.075882 44.372551
216.041382 32.020618
217.749649 54.530819
225.162109 37.525959
228.066071 65.420158
245.140854 40.53875
245.403656 45.564629
246.079208 70.593117
261.62207 27.29389
263.172852 49.048038
265.088684 46.61319
272.077209 50.55603
275.155701 39.742378
293.464203 39.293442
297.849854 68.509148
299.195587 435.698608
305.161102 111.1231
313.367706 28.125
317.160522 94.603394
317.78064 50.544361
323.205109 29.396259
332.152374 29.33497
335.17337 2135.6521
341.205261 670.480225
353.186768 131.809097
359.172211 53.74625
362.902618 43.9272
364.14444 43.003151
371.198425 177.122299
374.809998 32.26667
374.854858 39.925289
376.624481 24.69907
376.749176 31.825001
376.932281 54.568371
377.183228 14259.339844
377.260834 84.546654
377.301147 26.41667
377.384857 32.57341
377.413757 27.80278
377.489288 58.283279
377.52887 27.94829
377.579346 54.181499
377.648254 43.115421
377.927979 69.063438
378.041107 31.866671
378.12674 75.495148
379.520569 22.382721
387.019348 33.551521
389.2099 3780.575928
404.752686 38.723961
404.78656 45.463772
407.175079 2054.065918
409.372498 51.596298
410.692627 30.655701
410.715973 58.031799
413.122711 50.01807
422.131805 28.364691
422.159607 28.80197
422.258392 23.13172
422.328979 96.709557
422.353455 578.431519
422.392426 79.130524
422.423523 772.261902
422.4534 652.257019
422.494141 666.252319
422.537994 577.554077
422.601654 1061.800049
422.65036 779.057129
422.700531 1055.094971
422.74353 444.142609
422.78714 779.229187
422.831055 283.097412
422.893555 134.6091
423.02182 276.547699
423.05954 120.901901
423.36322 98.576874
423.389404 183.592896
423.474854 420.277588
423.569092 196.803406
423.717896 161.135498
423.766998 206.561798
423.805328 221.270798
423.908417 101.309601
423.928284 53.251492
424.003021 85.744904
424.087769 76.038208
424.161133 179.452393
424.324036 50.66116
424.373871 86.491997
424.518372 39.003471
424.624084 140.349396
424.679626 41.719051
424.702148 81.084106
424.849213 68.712067
424.979034 57.43219
425.189087 793676.625
425.798889 273.553314
425.8255 790.003418
425.851166 128.826797
425.88266 552.773315
425.915131 155.059799
425.948273 595.233276
425.982208 42.984509
426.014008 134.485306
426.036774 572.463013
426.089783 34.98674
426.113342 546.955872
426.357819 151.273605
426.488647 223.202103
426.577454 454.149811
426.647736 116.465797
426.670105 281.845001
426.716278 251.760406
426.766205 107.238998
426.840759 90.326881
426.916687 168.502396
426.994476 223.157196
427.240936 210.059998
427.297638 34.661381
427.336273 201.983307
427.439331 28.77759
427.542908 48.480068
427.606903 116.728203
427.768951 140.133499
427.819214 63.273579
427.855225 139.216003
427.900421 190.573395
427.936066 68.513184
428.054962 58.457279
428.108337 55.892151
428.195587 102.906502
428.28006 30.37796
428.385162 71.425797
428.531677 59.46384
428.970245 34.046299
429.233154 93.005051
429.784149 32.00956
429.920868 27.017441
429.963379 32.959351
430.420166 28.696329
430.81604 38.677189
431.011536 27.612
431.096375 34.696972
549.535767 39.445869
1458.095581 35.980721

>ms2peaks
103.040833 65.455109
109.08622 41.970459
112.110588 214.440094
113.059814 31.72024
114.778557 36.570511
119.722397 64.20031
120.018524 54.30386
124.071503 22.37089
124.111313 446.612305
124.144951 26.06706
125.330177 28.74094
125.346062 48.056709
125.357239 32.01754
125.368355 56.33659
125.385536 46.271271
125.393257 51.416031
125.403793 177.558502
125.416817 84.708344
125.431137 265.927094
125.452187 346.655396
125.47065 188.298492
125.489235 600.648682
125.514175 466.504608
125.521286 188.455399
125.532898 169.434494
125.542084 650.417786
125.552528 99.506409
125.563179 136.018494
125.575188 419.692413
125.582474 141.981796
125.607513 114.449997
125.622246 194.381302
125.64492 209.041
125.664246 117.454597
125.676857 103.208298
125.684013 73.13633
125.697083 99.100609
125.712349 57.81638
125.72139 209.443298
125.732964 60.065601
125.742729 152.905106
125.757103 48.19804
125.764252 51.05357
125.777328 55.601849
125.790672 76.171463
125.812538 90.772461
125.825928 83.387329
125.843872 35.73851
125.854942 41.457321
125.865479 89.438408
125.880432 46.84005
125.916779 78.141823
125.963081 98.01532
126.000214 80.877151
126.058929 55.471161
126.08815 59.0112
126.128441 707197.875
126.469902 165.986801
126.499878 132.608505
126.543983 72.208344
126.560822 100.297501
126.589905 235.331604
126.601036 220.664307
126.61866 147.036102
126.654022 97.320099
126.661392 277.111908
126.678452 118.5578
126.689209 163.598007
126.705582 123.073196
126.715698 61.20454
126.725563 231.787292
126.751877 219.588501
126.759438 74.863197
126.767189 216.688004
126.775131 23.56283
126.791954 38.257069
126.812241 29.76861
126.821213 284.753815
126.846237 42.01894
126.854538 88.501129
126.880745 53.814091
126.892616 90.139282
126.902534 82.077782
126.914314 109.759499
126.930649 80.111229
126.941269 19.49921
126.954506 49.35582
126.972267 71.932442
126.978905 32.972221
127.004204 58.033569
127.015686 65.533669
127.048836 62.975948
127.093193 123.672401
127.177353 115.641701
127.195251 81.105133
127.271751 75.292931
127.287712 58.3699
127.296379 31.99642
127.305779 33.93494
127.323204 39.90163
127.345085 97.235046
127.366112 37.776909
127.387383 58.364559
127.403168 85.350563
127.416542 89.720558
127.430367 47.759491
127.441116 47.108871
127.448936 23.65591
127.485931 20.615
127.537788 103.182899
127.693497 83.380867
127.796364 29.03253
127.860771 33.409592
127.935326 38.093571
127.954529 37.502609
128.327957 25.4004
128.516388 25.00198
128.74794 27.25
128.853577 33.391129
132.185471 21.070181
132.999542 40.402401
137.059631 51.666672
142.042068 48.16964
142.973526 26.53933
144.064438 32.099178
146.0354 64.703453
150.086105 57.12587
152.06958 55.831051
156.064896 34.59457
169.135117 44.703739
171.149017 163.314194
172.132248 2040.530029
172.260193 28.252081
174.075531 99.412148
180.041565 146.540695
183.044327 35.520828
191.281265 91.493248
197.159821 38.89872
198.054413 28.48023
202.107941 46.638039
205.384857 38.386909
206.055664 87.180199
210.168976 69.104553
211.18071 526.721924
211.79248 32.44928
216.085052 163.500198
218.085693 69.593452
222.174286 29.477631
224.069305 52.60606
228.065475 216.013
234.053421 98.247276
235.176712 35.685902
237.032104 28.43202
238.08136 34.708328
239.170593 121.496498
245.131668 53.884628
252.06282 519.907227
254.056183 27.075001
264.04364 63.53508
264.088928 255.185303
264.177551 46.555969
275.152771 454.550995
277.187714 80.354919
279.167603 93.413551
281.183624 33.471409
282.055878 277.61499
282.176208 37.802971
283.206543 63.59277
299.145233 28.177629
299.196472 2673.189941
299.586212 28.89361
300.726135 26.593861
301.167938 60.23967
305.161713 1218.593994
305.60672 28.188391
307.184113 32.3536
317.161072 724.516602
323.19577 527.435608
324.130249 20.402399
331.169586 30.440599
332.141846 88.278358
332.939301 24.024191
335.173218 10523.929688
335.259827 32.695511
335.368561 31.338619
335.413177 78.867622
335.436768 24.64015
335.573029 25.67811
335.627625 32.502319
335.665955 29.630211
335.74231 36.217949
341.206482 3231.897949
341.667633 23.08284
341.731812 29.347219
353.191742 243.137604
359.105743 54.068588
359.172302 412.20639
359.374542 23.34234
363.165924 44.111111
371.116394 25.474079
371.198486 919.12262
371.495911 36.935108
374.764709 26.66964
374.804352 45.386749
374.84903 72.270851
374.883057 30.63558
374.944458 25.64286
375.002045 83.389259
375.133453 27.12121
375.922485 54.381809
376.995941 26.025
377.070068 97.285172
377.104462 252.350204
377.135651 178.997299
377.184357 52316.441406
377.465729 153.207596
377.522705 169.161896
377.618591 51.000549
377.660492 54.713299
377.700745 97.537903
377.727356 35.435329
377.773712 113.910797
377.798096 55.577381
377.823425 107.886597
377.873932 55.654411
377.916046 76.814659
377.990021 28.166229
378.037506 60.625961
378.254883 36.050442
379.058167 26.00952
387.05365 29.81341
387.162689 22.53389
387.308624 28.200491
389.169312 396.732086
389.20993 7818.76416
407.176331 4506.439941
407.674561 35.96909
407.730957 22.681669
420.361145 37.37347
422.339874 70.377319
422.366882 113.242203
422.419861 299.547211
422.478973 259.716797
422.51062 67.819443
422.542938 220.242706
422.565125 103.214897
422.609833 260.316895
422.647217 224.459
422.689087 272.5625
422.735229 179.137695
422.770844 204.227905
422.796326 136.031601
422.825348 183.652298
422.87085 142.527298
423.006775 213.915695
423.069305 167.213196
423.173767 37.476509
423.210205 22.621571
423.306305 20.614771
423.709045 61.55043
423.856018 50.494228
423.927795 62.602268
424.343994 59.4203
424.493073 111.422997
424.521271 20.339689
424.72702 44.821041
424.88382 30.040409
425.09137 208.522705
425.187897 258403.59375
425.802551 129.401505
425.863861 529.552307
425.888702 37.835621
425.910706 84.538803
425.973816 324.185913
426.018555 339.099304
426.059082 81.824997
426.095795 470.639191
426.141235 25.723459
426.284241 374.56601
426.310059 128.244598
426.419128 94.441689
426.450836 53.949219
426.500122 102.852798
426.66861 148.983307
426.72287 29.71176
426.759308 129.672607
426.832153 44.672119
426.909668 115.431702
426.955475 143.6371
427.127106 19.000731
427.241272 98.522438
427.617645 32.856129
428.360046 20.706791
428.711761 23.68104
429.237213 48.326462
429.575836 25.402781
431.040588 37.477268
431.098267 27.74962
457.993164 27.065041
467.719574 64.85746
743.530762 26.831751
1338.14624 26.63273

>ms2peaks
100.072884 79.730667
103.020721 125.982002
104.026466 40.835941
106.063377 38.362961
110.060104 284.290894
110.09436 69.94828
111.044495 115.823196
111.104538 296.833588
112.073479 31.224501
112.113167 331.878296
114.053841 59.379139
115.040794 72.334541
117.055008 56.714279
117.177376 35.281429
119.016487 44.698811
122.03904 73.814934
124.111618 3886.947998
124.331726 39.506779
125.059479 230.840103
125.311951 33.803398
125.359314 37.752659
125.366219 43.740822
125.377876 75.592949
125.395622 106.447998
125.406731 94.108849
125.420128 159.088806
125.428665 210.983002
125.436005 206.742798
125.46019 830.755615
125.473976 226.700806
125.494484 845.079285
125.504478 283.298889
125.519012 432.14859
125.535301 848.706116
125.573364 230.738297
125.588539 478.270599
125.610748 132.128601
125.628571 364.539612
125.657547 103.057198
125.665771 238.374298
125.680733 105.920601
125.690971 233.096497
125.707062 133.002304
125.738266 262.373199
125.770332 73.352943
125.788544 63.00119
125.799309 76.560547
125.812401 198.165497
125.831215 61.19286
125.851936 43.667061
125.861626 68.248528
125.87249 116.031799
125.88118 34.121208
125.900764 60.049549
125.908768 34.786949
125.95874 92.520844
126.04258 44.208328
126.052849 194.343307
126.07386 97.861107
126.129005 952910.8125
126.482559 134.221802
126.542633 294.361908
126.563347 184.282501
126.573296 142.615494
126.59642 89.284752
126.604309 129.320404
126.623093 339.675995
126.640686 140.131104
126.658188 242.463898
126.679283 253.214005
126.705223 125.627098
126.717087 108.536499
126.733765 490.252502
126.756111 99.365936
126.774788 49.481491
126.787941 109.487
126.801659 62.258011
126.835487 73.51445
126.847321 118.435097
126.86026 47.287998
126.87645 75.859428
126.893555 128.7901
126.909798 80.832977
126.92746 107.3479
126.95443 57.88203
126.972565 160.907303
126.987038 61.571758
127.006523 98.129066
127.0187 88.418999
127.031754 58.484261
127.065857 89.750343
127.092972 76.467323
127.178444 244.278198
127.191681 79.990051
127.209427 104.634804
127.259766 44.572441
127.271584 130.924606
127.307213 68.409149
127.343636 89.841408
127.358727 45.68531
127.37191 99.143646
127.389687 65.918114
127.398956 48.670929
127.406799 49.66515
127.424507 60.61615
127.503311 75.709801
127.51004 40.351521
127.592125 32.958279
127.601143 40.813309
127.608513 33.42897
127.748657 40.134369
127.809448 44.209511
127.825714 39.914768
127.850121 54.75
127.894173 42.746689
127.993942 30.2013
128.048859 39.972858
128.068802 138.547897
128.246674 42.507351
128.331268 41.361111
129.081955 33.045601
132.017044 52.090092
134.036026 35.736389
136.049408 43.04892
143.02803 75.280144
144.069031 44.028542
146.03772 45.920139
146.937988 88.802643
152.070724 42.195801
153.053864 54.778702
155.026901 53.074841
169.134659 60.835678
170.077972 51.625
171.019699 97.334442
171.14917 175.033005
172.131775 369.607391
174.074707 33.67683
180.063736 81.740044
184.346268 36.755119
193.16861 30.725981
198.073837 61.673759
206.050583 34.80555
211.18042 362.185913
224.067032 34.966949
225.067108 44.797871
225.15918 39.972221
252.063461 90.333893
254.057159 48.22464
255.167374 30.39081
275.151428 181.713501
282.064148 37.058182
299.195892 287.582001
303.330109 46.038101
305.161285 43.063129
335.172119 122.996902
359.167969 38.269932
377.183594 157.463104
425.17865 42.681759
472.311523 78.136047
615.928467 51.021049
980.571838 68.325447
1109.404419 44.001461
1617.22168 41.605721
1685.801147 47.635159

