>compound Methylprednisolone M+H
>formula C22H30O5
>parentmass 375.2166005120905
>ionization [M + H]+
>InChI InChI=1S/C22H30O5/c1-12-8-14-15-5-7-22(27,18(26)11-23)21(15,3)10-17(25)19(14)20(2)6-4-13(24)9-16(12)20/h4,6,9,12,14-15,17,19,23,25,27H,5,7-8,10-11H2,1-3H3
>InChIKey VHRSUDSXCMQTMA-UHFFFAOYSA-N
>smiles O=C1C=CC2(C(=C1)C(C)CC3C4CCC(O)(C(=O)CO)C4(C)CC(O)C32)C

>ms2peaks
105.607704 46.239578
106.009521 29.830429
107.085411 48.834492
114.885689 22.5522
115.073112 91.815117
117.068184 36.428028
119.08757 85.668266
121.06105 24.408331
122.687332 5.748333
122.899658 10.5307
125.062225 36.435421
129.070694 62.81337
131.044083 64.111107
133.102921 61.128899
135.080673 318.081299
135.307709 5.35307
146.471268 5.061275
147.077972 222.127594
147.112289 81.618553
147.128784 7.829301
147.45813 13.47704
149.008331 5.672619
149.093643 65.883873
151.116669 30.887409
157.081726 16.841181
159.077667 65.067436
160.219223 12.61232
160.897675 24.78261
161.096375 415.973206
161.211243 13.57992
164.942963 12.33333
165.089035 59.26786
171.115463 26.51894
173.095993 74.349388
173.129608 51.86832
173.24353 2.683333
173.743042 21.29965
175.112885 74.607903
177.500351 5.480072
183.034561 16.253969
183.096298 85.325104
183.155228 3.958333
185.09494 162.402802
186.584549 3.375
186.596649 17.246981
187.111359 269.787811
187.135101 5.083333
187.838806 8.595239
189.086975 66.284027
199.108398 42.811699
207.118011 22.26759
211.110809 110.138
211.458832 10.08333
212.967468 2.386905
213.093628 29.513201
213.125748 208.408096
215.139374 7.592949
223.107361 41.373741
223.664627 5.6875
223.896667 9.531863
224.153183 8.716666
225.130829 21.961161
225.206528 10.42803
227.102921 43.197449
227.143005 27.19771
231.137222 88.506248
231.812653 13.77412
232.124207 22.66964
237.128448 333.841614
237.171188 2.75
249.120758 17.70833
249.238861 22.546989
249.807129 10.36012
251.085129 24.961241
251.111038 10.25
251.136536 131.212204
251.547104 4.094697
251.601303 10.79167
251.691162 5.049603
251.879837 7.481667
253.159027 209.462204
253.189072 3.675
253.482773 13.75347
253.765366 10.85417
255.175201 42.164421
260.443573 8.307693
261.261475 29.57143
262.095306 6.775537
262.13092 27.383329
262.298096 4.002451
267.138947 69.123787
277.147888 15.96003
277.285339 13.92892
277.383575 20.160549
277.446045 14.18673
278.164032 60.861961
279.13623 61.862881
279.172333 468.921509
279.252289 5.357143
279.697723 16.760059
279.816467 4.669445
280.052155 40.78896
281.144958 33.00071
281.190369 116.858002
281.536926 5.523809
282.803955 3.670455
283.202911 66.1436
283.945709 4.016667
288.142883 50.698471
291.165894 8.083333
291.493134 8.037499
292.393036 33.71904
293.141052 12.55408
293.154846 277.535889
293.19046 85.503166
293.891693 6.03592
294.011078 20.81909
294.106567 12.79594
294.435883 6.446428
297.145691 48.878601
297.183868 247.335907
297.483948 3.666667
297.543488 8.506945
297.756836 16.03409
301.477997 3.791667
302.610382 24.76263
303.174957 375.906403
303.444275 24.049379
303.52359 15.6688
304.342712 15.65278
309.18454 137.507004
311.171631 14.94015
311.193451 56.04451
312.57843 8.668011
315.155273 23.836269
319.550903 4.761905
319.716583 9.057971
320.818542 6.668333
321.111908 21.46216
321.185638 1378.612061
321.25351 16.227079
321.286041 2.0
321.340607 4.408333
321.435364 17.680811
321.467865 24.023581
321.53363 11.66865
321.903687 7.671297
321.922302 17.790951
322.109863 30.67811
322.351013 27.55637
322.62793 3.672619
325.288269 7.001984
327.189758 48.754379
329.204681 14.58671
336.930328 17.80261
337.065002 12.47818
337.109772 24.489799
337.191071 13.66667
337.492523 14.0744
337.54364 11.00833
337.913391 3.703704
338.304657 12.33446
338.375122 9.358974
339.080414 40.585838
339.194794 2480.938965
339.279602 20.386681
339.357758 13.39257
339.394562 33.078918
339.412537 9.075
339.494843 5.296568
339.536255 16.054489
339.596832 7.484848
339.643341 11.27976
339.691864 6.680555
339.719971 19.051559
339.76123 3.75
339.800507 48.3895
339.822876 10.39394
339.850922 43.074299
339.923767 10.03788
340.02124 4.683333
340.573608 3.003788
341.076904 4.761905
342.574829 5.336111
354.805084 9.708333
354.877991 15.12346
354.905426 6.906746
354.961517 49.43779
354.990753 26.72653
355.054535 29.33559
355.102264 22.59716
355.16687 22.84038
355.238556 9.023809
355.33606 4.333333
355.395111 9.667397
355.430176 15.07419
355.585175 11.41667
355.646576 4.075
355.946289 13.09325
356.241852 7.022059
356.405762 6.801667
356.563507 8.284091
357.20517 8038.520996
357.282593 93.282883
357.311371 11.75
357.332947 17.412479
357.374237 41.76609
357.403503 7.564815
357.429413 60.095909
357.450317 100.809799
357.496857 2.375
357.511688 46.70433
357.546875 68.372704
357.571045 32.175449
357.631439 64.658463
357.661713 47.751839
357.681061 4.335318
357.701874 8.783334
357.72049 37.0303
357.751678 61.352951
357.856903 49.353741
357.904449 7.703703
358.357361 18.00992
358.685547 16.02083
358.811218 15.30029
359.895172 16.35606
360.22525 4.694444
360.37085 9.88469
361.000427 3.440476
361.672668 10.05
362.149994 13.90645
362.963989 6.352941
363.20932 15.08003
363.647125 10.37191
364.065033 3.669444
364.578918 56.15308
368.641205 5.041667
370.441956 11.87879
370.606964 6.533333
372.193939 6.107143
372.655273 15.02641
372.770233 17.84314
372.79245 12.66667
372.832703 117.272797
372.866333 7.020833
372.891602 21.49662
372.921204 67.510834
372.951782 76.079361
372.971802 89.414413
373.012817 181.374802
373.041382 99.104843
373.069855 98.932251
373.122284 50.23703
373.158508 104.365898
373.186249 25.18947
373.237 102.285797
373.273651 63.432098
373.295502 31.408621
373.370483 43.602459
373.419189 86.736389
373.519165 6.080128
373.590393 25.28763
373.622406 55.173302
373.671478 38.376041
373.722748 7.757576
373.889069 103.1045
374.051605 87.537643
374.097412 32.071289
374.213501 18.147499
374.348846 18.454769
374.493195 32.29723
374.526794 29.299641
374.707428 48.668098
374.767487 30.451111
374.911621 9.214912
374.965179 14.33712
375.121735 158.354507
375.148041 314.158997
375.216736 74110.296875
375.508545 205.962204
375.552612 47.86684
375.586578 125.741997
375.658691 45.671879
375.697327 103.962097
375.727142 19.387501
375.755554 94.042892
375.785736 151.042603
375.826141 270.826813
375.868713 145.638199
375.903168 139.501694
375.92395 119.319199
375.949799 25.853849
375.977875 124.038597
376.07251 168.883408
376.178528 4.680556
376.374725 52.050911
376.435181 12.0572
376.464355 43.153568
376.541168 25.67462
376.611176 48.032551
376.676056 52.08466
376.723846 66.153351
377.032654 64.210167
377.201538 47.278721
377.259064 8.213384
377.295105 7.444445
377.314819 17.701389
377.464722 46.817459
377.528442 9.053947
378.077209 14.66667
378.130127 8.541667
378.246277 7.690476
378.334229 15.22924
378.530518 8.015873
378.769043 25.41674
378.982208 16.572689
379.648132 3.047619
379.714691 11.03981
380.57077 17.34248
380.692719 5.682971
380.991455 7.403736
381.032196 11.00102
381.8815 9.078488
382.752197 9.019608
382.963257 11.74516
383.057587 4.963235
383.343384 3.668651
384.135101 8.667857
387.774139 34.300289
391.128204 5.001437
397.422882 17.18667
403.87619 11.34483
466.518433 10.08167
487.963593 14.33333
549.697205 7.969086
744.121216 7.453703
744.198242 13.44643
744.256165 7.177631
744.303772 31.697121
744.399109 4.898148
744.482361 53.35704
744.525635 17.670879
744.561096 4.481482
744.610474 19.74194
744.663879 8.673612
744.743408 36.384411
744.800049 68.1446
745.066406 42.61916
745.387146 11.14286
745.627014 38.488049
745.776611 15.47134
745.947571 8.667683
746.137634 10.35874
746.515381 4.852273
746.593872 24.089291
746.679688 5.069444
746.921814 3.640152
747.335449 6.033602
747.658875 7.6875
748.555054 3.926282
748.930847 11.38542
749.239258 8.34375
749.314819 17.013889
749.424805 12933.150391
749.536743 230.919601
749.587341 91.119858
749.649658 95.462738
749.703064 48.086571
749.759766 284.300507
749.845947 233.828598
749.917175 38.7798
749.963196 210.671494
750.171082 132.063095
750.276367 84.865067
750.708923 68.93837
750.919373 49.45401
751.060974 27.376341
751.140015 14.58333
751.459167 4.727941
751.545959 27.21517
751.80426 24.71821
752.252014 15.79605
752.359009 30.26157
752.703857 38.842529
752.947815 21.35606
753.014221 7.605556
753.386719 16.624029
753.830811 3.875
754.322815 9.022163
756.55072 4.342593
757.191956 9.378703
764.957031 13.08333
766.365051 12.88021
768.544495 10.58333
894.205994 6.75
1263.062988 19.783211

>ms2peaks
101.05851 103.5158
101.089363 3.791667
101.159599 14.75
103.037392 141.733307
103.068481 3.669118
103.199196 10.34783
107.048141 25.988171
107.084328 19.85952
109.105011 61.442619
113.060104 43.1376
119.084915 66.131981
119.671036 4.1875
121.064072 186.715195
121.106003 29.97674
123.451492 13.70519
124.382858 8.25
124.404343 18.48702
125.058868 33.760639
129.068314 37.41441
129.088562 15.875
131.08551 125.706001
131.111938 1.666667
133.100189 58.053631
135.042618 26.444441
135.079727 907.585022
135.129715 2.005952
135.210602 12.35648
135.25293 13.78157
135.376495 6.366667
135.449402 9.680555
135.562775 8.881579
135.651886 7.533333
135.913376 3.541667
136.536514 16.120001
137.06102 31.46538
137.09433 99.669228
139.073212 30.520491
139.442184 7.130208
145.103119 87.201233
146.382767 4.814815
147.079712 122.162697
147.13414 4.007576
147.397705 21.438601
147.459854 6.721154
147.517548 18.6509
147.677872 15.0744
149.093964 91.826622
149.246246 5.76923
149.327042 12.10965
149.357864 2.408333
149.65535 11.45
150.070084 7.84375
151.075211 18.67465
151.096405 5.416667
151.109207 5.827381
152.628967 2.347222
153.088898 128.436295
155.060593 7.009615
157.0867 51.530491
159.079178 166.672806
159.115723 11.00379
160.289337 5.094697
160.36409 6.345238
160.617096 13.91159
160.840439 14.09677
161.0952 1359.996948
161.145004 3.413462
161.206833 13.70249
161.21994 2.053571
161.290756 2.347222
161.349426 19.860121
161.379135 13.25
161.38797 4.002451
161.400604 13.61742
161.421387 10.54833
161.494171 12.13564
161.604752 15.00556
163.074051 34.1856
163.111633 164.494995
163.400681 12.87076
163.774933 14.08333
163.81897 12.68003
164.661285 2.361111
164.813797 19.37719
164.86261 10.36687
165.090759 223.677307
165.278229 3.66886
165.412064 6.573412
166.444168 14.93978
166.531189 4.854167
167.108017 23.338079
169.093735 30.074841
169.103119 18.26136
169.124329 7.016304
171.111694 37.74371
171.271057 12.45833
173.094299 86.903168
173.481583 16.41667
173.898712 10.67045
173.998535 8.111112
174.061951 36.498852
174.160538 11.21333
175.111389 248.034393
175.150208 4.816667
175.19046 2.333333
175.292557 3.686404
175.328995 5.231482
175.42598 30.329229
177.090317 275.381012
177.122208 52.746712
177.657959 9.336805
177.945587 19.691271
179.106735 84.405159
181.735245 6.906746
182.437943 4.8
183.100876 242.172897
183.251816 11.04545
183.318176 9.564103
183.350662 9.33477
183.430756 13.07716
183.666626 9.063725
183.907684 7.111111
184.180679 7.395202
185.097687 848.013184
185.154556 5.346264
185.396057 7.463542
185.51442 3.722222
185.670929 12.04167
186.282944 9.642095
186.401627 9.03125
186.568024 4.340278
186.729507 2.016667
187.112457 800.009583
187.305359 13.90645
187.340134 25.523609
187.475388 4.852273
187.500443 7.0
189.396927 4.59375
191.105453 31.77335
195.079346 48.695648
197.12114 22.0744
199.116043 42.435619
201.125641 145.996796
203.101654 19.52632
203.110672 26.15086
203.143463 19.027781
205.096893 36.737782
205.117188 29.385071
205.152466 28.04167
209.115494 28.504169
211.10936 86.59922
211.766281 8.001344
212.561996 16.56609
213.092163 22.17778
213.126831 303.2164
213.841919 12.44537
215.101532 17.17926
215.141937 33.94281
219.129395 13.06136
222.102341 70.89547
222.131653 5.671875
223.132965 128.227203
223.164658 8.449074
225.081787 10.16329
225.123886 129.754105
225.885742 13.39701
227.138107 178.733902
228.118423 26.340679
228.449799 19.01042
229.115311 27.1875
229.166031 105.994202
230.150269 9.053572
231.136551 194.0233
235.109787 98.661049
235.138885 6.494048
236.956375 12.0375
237.125763 340.6539
237.156113 16.558331
237.368912 9.469697
237.842819 10.27222
238.072678 2.14881
238.492584 18.51062
239.142578 262.131805
239.380234 2.339286
239.523605 8.314103
241.153915 83.834213
246.105453 42.097031
247.132553 75.15213
247.683746 11.33772
247.820648 7.338542
249.063156 40.946838
249.129562 98.138206
249.150375 68.856537
249.180695 5.674242
249.901978 23.63542
250.2677 15.77255
251.141174 703.068176
251.205704 2.416667
251.313675 7.469444
251.523224 11.70833
251.569748 2.669872
251.70903 4.297619
251.724411 6.677083
251.746353 5.008333
251.801559 6.075617
251.86319 19.29167
251.887131 7.625
252.624588 11.22685
253.15802 880.140686
253.22229 3.714286
253.238907 2.671296
253.476929 20.850491
253.492981 3.358333
253.537933 7.335
253.576721 4.75
253.621033 14.56474
253.645523 24.362289
255.17276 82.095978
255.56601 5.884804
255.608521 11.82315
255.814148 6.826923
261.127441 164.019394
261.836304 5.001812
262.112823 16.03858
263.141205 130.8414
263.416077 4.054824
263.618042 7.734848
265.16684 17.27899
265.489227 6.888889
265.525269 15.8642
266.978333 7.022223
267.134125 149.731293
267.164215 26.2043
267.416199 7.763095
267.862518 7.71627
273.142731 23.270321
275.134552 20.94829
275.677124 4.531863
275.850189 5.444445
276.143372 60.26033
276.781982 10.65661
277.156281 465.028809
277.681946 6.583333
277.712616 6.370614
277.792084 34.023739
278.38147 7.041667
278.45929 5.75
278.578339 4.336538
279.136475 190.942505
279.174316 1259.204956
279.270386 7.564103
279.362762 5.415
279.401215 30.04427
279.426727 8.028153
279.444092 8.0625
279.525574 3.003205
279.541077 22.837521
279.583618 9.854167
279.7229 19.66407
279.868988 7.102273
279.963257 11.11574
280.002747 8.333333
280.263794 7.001984
280.3172 7.04529
281.157166 84.890602
281.191498 462.361908
281.407349 15.03409
281.463654 3.047619
282.020538 10.33333
282.096497 9.33422
282.570129 9.375
283.849335 4.844298
285.146973 79.641937
285.213562 3.002778
285.350281 29.66667
288.148621 57.487438
288.470978 12.24282
291.173309 136.791702
291.421753 20.46047
291.508972 13.63362
291.707001 11.05921
292.019012 11.95833
292.056641 3.483333
292.581085 11.21333
293.045441 17.4
293.152771 1117.572021
293.189392 561.921326
293.236053 3.367424
293.279419 3.041667
293.361145 9.347222
293.397095 29.445869
293.444794 14.375
293.641907 3.008333
293.718231 5.347222
293.749084 28.506769
293.790314 10.51894
293.868225 20.55784
293.916809 10.62576
293.963043 15.66987
294.013947 2.208333
294.058838 15.42691
294.607025 10.75521
294.691498 10.0704
295.169647 326.065613
295.383392 9.74359
295.50415 4.416667
295.524475 6.25926
295.626038 10.64651
295.785797 8.081897
295.887115 17.674021
297.099579 14.55968
297.15094 321.362
297.183655 738.611511
297.253143 2.083333
297.324799 3.125
297.532349 10.52182
297.582947 5.371913
297.672791 2.666667
297.780823 18.351351
297.85907 7.783046
298.015198 10.06667
298.296692 9.160714
299.196228 143.490707
299.271729 2.0
299.542603 14.34722
301.147827 18.07527
302.718567 12.30682
302.962524 11.3952
303.173706 1267.952026
303.2388 3.668651
303.263489 11.45588
303.323883 9.063725
303.389587 13.71902
303.415833 9.261905
303.445984 45.126968
303.529663 8.380815
303.572083 4.333333
303.602386 5.688889
303.638733 24.00189
303.657532 21.049601
304.008636 4.336538
306.023926 6.297619
306.159729 16.334061
306.780914 5.720238
307.280792 6.482143
307.341766 12.1408
308.401947 31.61508
309.183105 312.11969
309.559662 14.722
309.590271 10.72803
311.161163 43.508331
311.198425 404.276886
311.294403 18.161619
311.490723 6.016304
311.843872 10.54167
311.976685 12.67778
313.177917 14.39126
313.286194 14.08046
313.507874 10.00102
315.159027 53.079479
315.364716 11.11111
315.519196 17.279011
315.580963 10.0
319.148865 13.20343
319.188049 4.44079
319.261078 14.20507
319.285065 5.138889
319.312347 8.001811
319.436707 9.773936
319.537354 18.005951
319.804657 16.02043
320.377472 6.075
321.011749 3.402778
321.144897 14.815
321.184418 4198.754883
321.25174 24.00577
321.286072 16.412821
321.323914 30.28837
321.343933 8.680555
321.377686 32.849361
321.409851 6.598684
321.446503 24.591881
321.473145 24.998131
321.499481 20.695089
321.542633 36.189571
321.58252 15.63542
321.636353 53.629822
321.680054 3.773809
321.72525 24.234921
321.798615 13.41714
321.848114 10.68035
321.909912 13.52447
322.098267 14.57143
322.353607 16.360121
322.571869 8.720239
322.671814 11.86111
323.028168 10.125
323.148438 7.190217
324.630829 4.8
324.781281 10.70249
325.542023 8.307693
327.193024 199.123398
327.409332 3.741667
327.718903 4.708333
327.777924 11.19022
327.986603 6.001812
328.629639 25.746799
329.213928 123.244598
329.252472 12.37593
329.431 4.681667
330.10379 3.666667
330.218506 74.16552
335.909393 8.361486
336.7771 6.671568
337.006989 11.53846
337.078796 11.64031
337.134308 31.264099
337.190948 39.875648
337.220306 108.512703
337.313599 30.7262
337.349182 26.46084
337.38504 7.852564
337.403046 12.00798
337.427216 26.66667
337.467194 46.319111
337.499939 19.285721
337.54364 11.67432
337.704712 7.852564
337.867798 5.741667
338.26593 11.03858
338.602264 6.416667
338.719696 12.85339
338.836365 8.121212
338.959137 23.30225
339.111847 11.57143
339.195312 10726.900391
339.271545 190.626801
339.30658 47.033661
339.331757 54.023399
339.376221 76.905678
339.415253 33.28199
339.437897 27.46579
339.491516 131.048401
339.522552 84.460167
339.567108 32.853279
339.610962 59.741859
339.629761 13.73649
339.654907 26.548691
339.68399 27.65436
339.727722 39.53056
339.846375 28.098379
339.909576 44.437302
339.949188 25.91473
340.051239 7.010417
340.087036 41.590939
340.136292 16.90909
340.926819 8.074074
340.952515 13.04012
341.768799 8.046875
342.026123 6.364899
342.124969 4.761905
342.959717 6.121212
343.410797 6.333333
346.240295 11.34069
352.482208 5.695513
353.889709 30.24197
354.557007 30.1859
354.596619 3.013889
354.693695 8.357142
354.772583 5.670455
354.794647 7.008333
354.877289 22.94079
354.916504 12.41336
354.962708 13.81481
354.978149 93.31636
354.996246 12.08854
355.03363 23.414459
355.073883 64.319901
355.135132 143.484695
355.18219 35.81794
355.220215 44.487068
355.258148 4.59375
355.292206 157.502106
355.316406 19.508841
355.34375 52.340229
355.395111 14.41346
355.429382 23.6196
355.492584 42.984879
355.519928 17.24658
355.645935 14.96543
355.7034 13.62069
355.772308 4.583333
355.788757 10.5
355.821533 36.224869
355.877625 17.979839
355.955048 48.63636
356.097198 11.15705
356.169403 3.688725
356.241913 10.10526
356.271027 32.33567
356.425415 15.68182
356.562866 9.355556
356.63858 15.63062
357.076263 20.594191
357.1138 34.386909
357.205841 30859.619141
357.381927 186.628204
357.437317 84.112633
357.469574 138.516098
357.495178 36.822708
357.532074 46.056011
357.559845 130.308899
357.592987 128.688797
357.634705 121.781998
357.677826 70.878242
357.70105 63.396931
357.734192 38.28801
357.759552 156.568497
357.790863 37.680931
357.813812 93.49675
357.836029 52.013
357.898346 4.670455
357.946075 147.303406
358.003571 47.36348
358.030365 130.716995
358.109985 143.8246
358.163696 28.726669
358.359161 10.26078
358.8591 66.026352
359.191589 5.375
359.341003 7.334402
359.513306 13.96491
359.579712 42.597221
359.61145 7.720238
359.699219 17.375
359.803284 12.51868
359.834961 12.16329
359.96759 14.4
360.018951 54.398418
360.378967 2.893518
360.841705 8.081897
360.958527 14.81548
361.063385 5.8
361.64151 19.19355
362.884888 8.755208
363.381653 15.03852
364.677216 55.378639
365.282349 25.688101
367.108185 38.639019
369.77594 10.00417
370.129578 14.80984
372.13446 9.377451
372.581635 9.25
372.634613 29.127649
372.6539 18.53409
372.705658 53.971199
372.746674 84.053612
372.783478 80.61618
372.815643 24.19112
372.851654 20.021259
372.879791 66.683762
372.904358 30.76601
372.944855 99.635437
372.981079 66.341309
373.015076 60.841721
373.04187 37.026711
373.074799 45.13348
373.10611 56.413059
373.134003 51.40345
373.183533 26.393749
373.208923 116.144699
373.282013 17.836309
373.427856 25.17803
373.466675 25.02424
373.639862 19.831141
373.80719 38.991138
373.855835 94.153008
374.15686 15.64393
374.412659 3.490385
374.430939 21.63377
374.492706 21.72043
374.547638 16.33415
374.649872 25.165319
375.085785 140.3358
375.216949 41955.730469
375.297852 102.804802
375.423004 164.797394
375.459412 123.060402
375.489166 24.332689
375.528656 127.611504
375.560608 146.089798
375.606689 119.144501
375.638214 220.551697
375.678864 30.009291
375.696838 57.143951
375.735168 88.332497
375.766235 12.18227
375.795563 202.643707
375.829803 100.425903
375.88797 73.819183
375.950439 101.903397
375.995789 166.567001
376.037079 36.626652
376.129181 182.862396
376.15274 34.866161
376.277832 25.86924
376.375336 75.195808
376.592133 62.032829
376.688599 51.86536
376.721008 29.01511
376.755859 23.680559
377.29483 9.053572
377.532196 19.21212
377.772827 10.725
377.928711 6.061274
378.205963 4.531863
378.328339 6.371212
378.516968 7.675388
378.848938 9.647059
379.004425 23.667139
379.194092 2.666667
379.241516 2.016667
380.231293 6.361111
380.822968 16.845779
381.283966 11.85417
385.110718 10.1579
389.206146 3.666667
389.830811 13.7219
393.533173 22.86425
401.124146 3.266667
547.409973 3.555556
653.176086 8.388441
664.551758 8.049797
744.390442 24.526751
749.423523 171.406998
749.516113 7.069445
1531.709473 11.46261
1598.247559 6.306159
1630.156738 4.35

>ms2peaks
100.615929 14.01667
101.058922 354.41571
101.218201 17.20167
101.776642 3.125
103.0355 57.03624
103.055031 30.38228
105.070183 136.552994
105.097336 1.666667
105.166374 9.094697
105.195053 13.23
105.216087 25.19841
105.226837 9.30242
105.812798 41.449711
105.845863 1.777778
106.558853 12.33514
107.08522 468.947693
107.114769 4.6
107.130547 3.367424
107.297531 4.761905
107.32505 3.0
107.35688 24.1875
107.436806 4.0
107.681099 6.160088
109.064316 179.294998
109.101685 252.637802
109.210976 4.673077
109.247337 5.007576
109.367317 2.733333
110.740646 7.59375
111.042198 42.946758
111.072166 21.96014
111.080673 89.390137
111.186661 7.415
111.774384 10.85799
112.625618 11.9616
113.057335 136.088501
115.036804 107.734596
115.073524 181.527405
115.849609 22.082649
117.053879 217.456299
117.067192 121.870102
117.099556 8.347222
117.738083 5.510417
118.504639 15.97348
119.085281 655.48407
119.179237 11.49667
119.217583 13.5787
119.322334 3.440476
119.457245 10.66667
120.477913 50.96067
120.783508 3.691667
121.064682 829.82428
121.09935 210.536102
121.122124 4.690705
121.162315 8.144048
121.173805 8.00463
121.195099 10.75556
121.275795 9.613637
121.342361 2.722222
121.454597 11.45581
121.526436 5.416667
121.541718 2.695513
121.72216 16.760099
122.100128 67.259354
122.106606 50.449951
122.302299 7.380208
122.511955 6.428572
123.044029 10.29167
123.082176 273.991211
123.130898 3.413462
123.192757 20.065041
123.331139 2.347222
125.058434 221.409195
125.084167 23.20015
125.09584 11.66667
125.146423 8.003788
125.167061 3.266667
125.468361 6.964285
125.52948 17.04003
127.074059 182.655197
127.256821 9.204166
127.302536 3.355392
127.641708 17.0056
129.064529 5.013889
131.047852 6.362179
131.080811 91.293617
131.087311 61.630138
131.311188 6.371913
131.351059 11.66975
132.4935 12.49597
133.076111 46.575272
133.101318 510.637085
133.235962 6.306159
133.38121 17.142111
133.653641 3.336111
134.296341 10.38075
134.322113 10.24242
134.402771 12.00269
134.439072 6.001437
134.479568 16.005211
134.513489 3.266667
134.550278 5.166667
134.592392 9.104167
134.653793 4.047619
134.79425 5.107456
134.980133 14.04025
135.040436 95.056877
135.07988 7193.297852
135.129532 64.976501
135.161148 40.303169
135.180405 33.384621
135.198868 32.617611
135.21376 2.666667
135.226791 3.760417
135.238129 15.70833
135.260178 10.07566
135.290176 24.83712
135.310333 33.073559
135.323074 11.14881
135.347549 13.08877
135.408905 10.70417
135.427872 2.041667
135.459015 5.013889
135.466248 11.5641
135.493942 21.25
135.516586 22.41588
135.573074 18.875
135.638687 4.782407
135.647842 4.083333
135.733444 18.42848
136.108414 8.444445
136.118149 4.107143
136.252243 8.333333
136.357849 13.72003
136.422852 12.75347
136.543457 10.8
137.059448 145.731903
137.436523 16.366791
138.273773 1.666667
139.076172 242.856003
139.115753 57.937778
139.216476 15.97711
139.360138 8.791667
139.524353 9.735544
139.719009 8.185606
141.053192 26.80167
142.511185 4.001984
143.06749 52.781921
143.084106 51.16021
145.062881 183.433304
145.102188 431.131104
145.147766 4.35
145.324081 23.375
145.374405 1.875
145.504532 6.506945
145.790054 4.336538
145.903656 5.786765
146.070541 59.87561
146.255264 3.75
146.277634 19.16255
147.080139 810.99292
147.118042 173.311295
147.158325 7.004902
147.245941 4.708333
147.316193 6.177083
147.377899 7.242816
147.44545 4.8
147.492081 6.615
147.662262 3.555556
147.788742 8.966954
147.842773 7.435897
148.222061 19.16176
148.605179 7.66821
148.668503 7.678572
149.096268 886.268982
149.130646 40.50626
149.144257 1.666667
149.426926 5.875
149.441956 6.011905
149.535385 5.088768
149.579575 14.99322
150.503326 3.555556
151.073975 103.297997
151.109344 111.258598
151.485138 6.722222
151.828598 8.339286
152.537659 4.115741
153.092728 117.675003
153.126083 18.021259
155.069016 28.92063
155.084885 46.482269
155.100067 8.680555
157.083969 146.936798
157.100601 73.038933
157.109879 4.625
157.479935 19.67778
158.18222 3.0
158.501785 11.28125
159.07872 1151.133057
159.115616 94.498466
159.132584 23.15369
159.163834 2.005952
159.273575 23.67017
159.31308 3.034091
159.335052 12.67816
159.390991 10.03947
159.427277 4.007576
159.82518 7.625
160.087234 35.432018
160.162247 6.371212
160.196442 19.874109
160.218933 5.041667
160.32135 19.555559
160.334 20.625
160.346649 6.737069
160.413361 7.148148
160.426453 24.68515
160.439774 6.19853
160.49646 8.066667
160.542587 23.67857
160.755417 8.229167
160.787766 4.802778
161.061325 58.77079
161.095428 8177.670898
161.13266 72.112091
161.149307 70.889923
161.167084 33.333328
161.175934 5.677083
161.220078 6.783046
161.252579 4.761905
161.262238 39.35696
161.27504 52.910782
161.316589 33.313622
161.372253 28.128269
161.396347 22.21814
161.410049 10.68889
161.438293 29.203329
161.468826 11.38083
161.492584 11.20119
161.502899 2.333333
161.525009 4.408333
161.593964 12.65399
161.62233 31.359909
161.698044 10.96491
161.834656 4.358333
161.856491 9.547619
162.5242 8.453704
162.743011 13.5375
162.891891 2.25
163.07254 75.880203
163.109253 409.641602
163.15596 3.42803
163.16507 9.001016
163.178406 8.346265
163.189087 29.374029
164.158112 6.371212
164.643753 6.0
164.717453 36.19841
164.741776 12.79451
164.770386 4.761905
165.091019 1162.020996
165.125031 42.739731
165.141022 54.415081
165.197739 6.742284
165.256439 18.505409
165.310745 12.7868
165.37616 13.02206
165.417038 3.125
165.488632 4.166667
165.519836 3.333333
165.588715 20.069441
165.689911 8.761905
165.703186 15.70417
165.860123 4.402778
165.877548 10.32328
165.904114 4.027778
166.531433 7.12037
166.604736 13.37037
166.967178 13.33532
167.105469 169.434006
167.350983 6.004902
167.80896 3.226852
169.103226 50.801708
170.081085 30.31579
171.081268 152.230103
171.117523 285.019287
171.261948 6.001667
171.335602 5.703947
172.087723 89.190178
172.096725 13.11204
172.251373 13.12821
172.575668 18.667271
173.094162 724.675781
173.131424 131.036896
173.16597 15.38782
173.225143 12.35417
173.319916 12.63333
173.417572 5.748333
173.538025 3.025
173.982132 7.008333
175.056519 4.225
175.077332 19.156919
175.111053 802.848328
175.242264 2.482143
175.259537 3.333333
175.31459 4.440476
175.568237 10.67901
175.729538 6.680555
175.752686 16.42708
176.500793 6.615
176.716187 7.653986
177.090347 700.114624
177.125854 68.109741
177.148254 7.081667
177.417358 9.858334
177.520462 11.16071
177.689926 17.403509
177.70903 10.9881
177.812485 13.24132
178.076096 27.164961
178.336502 6.041667
178.963638 7.25
179.106583 95.898193
179.422043 7.541667
179.556396 22.71627
181.102432 55.698059
181.38707 7.656609
182.297165 3.020833
183.099258 633.168091
183.114807 55.554722
183.27359 4.761905
183.374222 6.666667
183.394272 5.721491
183.426285 4.671297
183.463745 12.23611
184.009247 10.42672
184.067398 12.70614
184.225571 32.536411
184.294006 21.376711
184.362015 47.076302
184.397049 3.888889
184.7491 25.61875
185.095474 4070.370117
185.136169 168.604294
185.154556 10.83841
185.166122 22.00379
185.230301 6.004902
185.254807 23.621571
185.279312 8.541667
185.355011 17.04595
185.372559 3.675
185.400436 62.483719
185.419739 11.07716
185.43396 8.745155
185.462387 9.240384
185.528732 18.201229
185.547668 18.54269
185.656235 9.201667
185.69809 5.375
185.723053 12.00066
185.77565 11.26667
185.830215 24.503839
185.884445 21.99419
185.992783 3.185606
186.036087 5.019737
186.07341 36.487541
186.115204 3.408334
186.173355 19.18391
186.241531 5.75
186.275787 7.875
186.306656 6.348333
186.411133 26.69759
186.499008 8.666667
186.607605 13.08221
186.930099 13.55648
187.077164 24.1875
187.111328 2779.676025
187.149338 18.28409
187.16835 38.773071
187.210037 22.33621
187.277481 11.36111
187.309921 5.666667
187.338501 9.094697
187.374405 21.924
187.3909 2.337963
187.476532 35.62619
187.491837 5.027778
187.523117 36.208809
187.695816 12.40351
187.806366 8.223765
187.819687 10.54825
187.94371 11.34987
187.991501 26.095591
188.073166 58.663719
188.370392 14.01667
188.539642 13.23184
189.090607 649.038574
189.126709 371.821991
189.164429 7.054487
189.20694 26.84161
189.309555 3.115741
189.779663 15.94444
189.812561 3.341666
190.076187 14.11638
190.426971 7.010417
191.10434 157.541107
191.141891 46.54808
191.171967 2.333333
191.508926 17.35606
191.538055 10.16329
193.117798 81.190376
193.304733 3.483333
193.392761 9.1875
193.913834 5.741667
195.078873 47.709171
195.110046 54.725948
195.120407 87.217903
195.51033 10.38816
196.117157 36.74453
197.095108 483.8508
197.135193 9.458333
198.248947 15.6864
198.45517 3.669118
198.710098 7.68421
199.074692 86.750702
199.111115 819.921387
199.314529 8.888888
199.466034 10.0
199.486908 22.000561
199.560837 7.935
199.618378 3.666667
199.893936 10.90686
199.956558 10.63377
200.129883 7.116379
201.088089 52.82436
201.12738 520.838196
201.168533 5.630952
201.189407 7.352451
201.391769 13.79427
201.984985 3.025
202.02977 3.185606
202.523926 5.006944
203.063934 5.742284
203.105118 54.218811
203.157776 2.0
203.585693 20.3887
203.99202 6.335318
204.046677 6.69697
204.478241 7.531863
205.121292 142.163895
205.224411 11.48485
205.350601 34.79488
205.490616 9.429762
206.160339 68.5
206.190033 3.347222
207.099594 28.35099
207.140137 19.15
208.232376 7.605556
209.094727 242.564407
209.125397 31.739731
209.272766 5.006944
209.81076 5.041667
209.977936 1.666667
210.031998 12.60606
210.04599 4.791667
210.30574 4.7
210.356186 3.675926
210.406647 3.675926
210.704178 2.449074
211.112274 1151.119995
211.1996 2.761364
211.295563 4.034091
211.437302 4.453432
211.555847 5.136111
211.57457 7.779321
211.650146 3.4
211.69043 10.15278
211.81691 13.00089
211.832153 11.5375
212.149658 9.601666
212.213226 11.04167
212.257767 7.71627
212.566925 5.401515
212.948059 22.54244
213.126892 1437.396973
213.178558 2.833333
213.192108 4.75
213.223801 9.0625
213.253082 3.386905
213.27269 6.083333
213.3013 19.30442
213.328415 11.34987
213.399612 7.214285
213.41864 11.48148
213.464676 3.888889
213.488083 17.16346
213.517654 9.148334
213.541885 9.697917
213.784607 7.59375
213.824921 26.820511
215.101334 26.60784
215.142227 203.414993
215.396362 13.82828
215.416794 10.24242
215.535263 10.37255
215.658569 1.720238
215.835693 6.033602
217.104782 38.077049
218.892715 20.36574
219.102753 10.10746
219.135773 105.852699
219.482483 4.1875
219.91803 14.02042
221.097015 29.31432
221.128738 42.62672
222.218704 7.773809
223.110016 376.795898
223.130951 70.443001
223.150085 28.960171
223.400513 4.560185
223.512985 5.395833
223.561081 7.291667
223.752045 15.81649
224.115509 148.673401
224.174026 9.599999
225.088547 295.891602
225.126602 737.058716
225.16568 61.603931
225.191238 3.013889
225.242462 3.355392
225.284714 6.688726
225.36792 11.415
225.447128 3.857143
225.514542 34.798111
225.714844 13.44004
225.744583 16.17308
225.765503 3.375
225.833328 21.78327
225.849136 9.674645
225.959457 4.190476
227.104965 114.535797
227.143082 616.327026
227.236374 25.851919
227.295242 21.511669
227.379105 13.07619
227.583008 11.00093
228.003311 7.003788
228.088501 11.20119
228.518631 4.225
228.943848 6.339285
229.118057 133.397995
229.150757 22.63377
229.432358 11.21354
229.846863 18.447531
230.183228 18.492229
230.732224 5.720238
231.136673 834.913513
231.181442 15.56944
231.208939 2.075
231.31337 8.025001
231.373993 9.345862
231.73735 11.48457
231.847305 10.8443
232.033157 13.42976
233.695648 7.364899
233.825272 9.897988
234.899124 14.91177
235.111282 356.582489
235.14621 119.016296
235.221329 6.884804
235.277954 20.409719
235.315186 5.674242
235.482269 17.64583
235.587143 20.038521
235.683945 3.857143
235.788254 22.20833
235.940338 6.306159
236.227127 7.083333
236.849289 8.667483
237.125549 1483.322021
237.195068 5.597223
237.229599 5.107456
237.262009 14.23978
237.363129 31.117279
237.478806 2.625
237.545822 11.07849
238.42598 7.138889
238.764603 13.80682
239.049515 6.520061
239.109192 61.16489
239.142624 913.602783
239.264389 11.70139
239.329956 4.531863
239.410782 39.884972
239.754654 19.667179
239.881516 2.416667
240.008072 8.698232
240.036942 11.64651
240.13179 11.78241
240.552551 6.347222
241.122101 162.949203
241.159012 594.11438
241.227478 3.666667
241.258743 2.111111
241.337097 2.815476
241.358673 8.452381
241.486908 12.25
241.520477 2.722222
241.863724 10.33929
242.180939 9.053572
243.133102 69.271797
243.487686 3.402778
244.230835 4.490385
245.115921 65.286171
246.774673 9.240079
247.10968 125.175499
247.145752 73.973228
247.875412 8.083333
248.705429 15.8287
249.12735 642.067322
249.141235 41.626301
249.299973 25.11021
249.334488 12.39054
249.460846 9.066667
249.585342 7.630952
249.610214 13.08305
249.67041 16.761869
249.735657 6.775537
249.897949 13.58333
249.972122 29.67165
250.031067 10.59868
250.087631 7.693376
250.269241 8.240196
250.34108 10.8375
250.737244 7.053572
250.847137 15.5328
251.086624 96.654861
251.101868 52.956268
251.142975 2597.25
251.198792 26.657009
251.271973 9.62963
251.31636 14.42594
251.34465 10.91667
251.364548 68.02639
251.387726 19.815331
251.409607 14.51087
251.448563 10.7815
251.504639 25.10247
251.524323 6.59375
251.564926 32.18
251.624954 4.09375
251.662399 6.075
251.714676 12.66793
251.736801 19.096359
251.76355 7.668651
251.834747 14.41422
251.882034 14.06833
251.931732 48.226719
251.98381 7.242816
252.047348 7.779762
252.110413 61.169689
252.141953 14.375
252.244217 15.53289
252.489929 5.226852
252.669022 6.444445
252.717377 21.48
252.768295 9.009259
252.784027 5.927083
253.056213 44.678871
253.081955 43.670509
253.113052 70.245506
253.157852 6845.875
253.22316 20.06588
253.243179 27.95632
253.286377 11.71138
253.334488 28.35358
253.352509 6.84375
253.397385 23.210751
253.44722 31.83606
253.500839 42.31432
253.526932 69.160667
253.571991 31.46081
253.643112 75.065804
253.668396 20.099939
253.688934 6.226852
253.761978 54.081921
253.851974 10.075
253.87674 6.740942
253.904236 18.413521
253.923172 6.0
253.943665 24.60465
253.967178 51.118141
254.097565 12.71354
254.190781 28.441521
254.340927 14.8965
254.485703 16.683331
254.721985 2.875
254.852478 10.33333
254.920334 6.260417
255.139435 105.157097
255.17334 893.972229
255.247055 21.97398
255.303894 16.79738
255.384338 33.677269
255.491547 8.03858
255.580551 9.190315
255.791916 8.856982
255.819748 11.28125
256.008026 8.673612
256.31543 14.74921
256.469727 7.125
257.084564 4.00463
257.113159 24.50379
257.151245 48.96825
258.158142 53.615162
259.10788 77.79171
259.847534 14.51894
260.122986 89.395287
260.155853 8.601191
260.745331 8.008721
261.126282 667.81958
261.165894 26.949409
261.387451 19.19101
261.423126 18.415541
261.538025 23.073641
261.682373 11.72222
261.830658 3.668651
261.910522 5.695513
262.264648 24.65518
262.304932 25.396391
262.58551 5.335784
263.140778 447.01239
263.174927 176.035004
263.364807 14.79688
263.395874 13.54688
263.478851 17.918369
263.680298 5.763889
263.722443 10.0947
263.753754 5.037037
263.774567 4.111111
263.804596 23.24511
264.117767 6.592593
264.364288 13.27348
264.456604 35.774181
264.671692 14.26535
265.12027 322.20929
265.154663 723.616028
265.236115 2.666667
265.349457 8.162635
265.41864 2.111111
265.513794 6.125
265.581787 6.097222
265.677917 15.01293
265.71347 26.953039
265.783325 14.92308
265.853912 20.177629
266.235229 24.37681
266.559937 9.523809
266.763336 11.76786
267.136322 1011.223999
267.17453 70.676262
267.211304 13.48016
267.359528 12.8023
267.431854 4.388158
267.471497 29.068041
267.839355 8.280303
268.148682 444.412994
268.17868 60.02977
268.588257 5.823718
269.403534 9.474712
269.668427 12.42222
269.834259 19.37719
270.136841 18.78676
270.154938 21.129271
271.133698 20.688169
271.170105 80.240082
271.424774 7.66821
271.573822 5.777778
273.1297 8.346265
273.291565 16.53178
274.131714 352.0336
274.188629 3.010417
275.029419 4.733333
275.059143 7.138889
275.181885 83.073936
275.231293 1.680555
275.344818 4.416667
275.544037 5.742284
275.572968 5.668859
275.848755 7.408333
275.885284 9.122475
275.901093 4.00463
276.04126 7.133333
277.116028 130.694
277.158508 1504.006958
277.232819 1.720238
277.314117 3.094697
277.425385 39.617222
277.470367 10.00167
277.487762 3.002778
277.505127 7.030303
277.545685 18.0016
277.702606 12.61232
277.719788 6.25
277.766022 4.341667
277.793793 11.46667
277.830139 28.504789
277.847198 16.000731
277.979248 13.46667
278.066193 17.6229
278.230103 7.474737
278.473816 17.66667
278.680115 8.675
278.703766 5.520833
278.863373 16.06395
279.136536 1074.527954
279.173798 3431.64502
279.252411 20.347219
279.269928 11.17647
279.296082 16.12315
279.327881 4.011905
279.351227 29.447741
279.406647 24.842581
279.444153 9.667857
279.459412 17.36409
279.482208 13.71408
279.501221 12.26389
279.554962 39.137741
279.632477 10.27222
279.659393 5.682971
279.714935 56.495781
279.774323 16.75926
279.810913 17.480261
279.833954 11.41667
279.882416 11.94707
279.934479 15.86865
279.956299 17.40774
279.991089 22.673349
280.019562 19.366961
280.18045 1570.714966
280.278656 14.95238
280.368439 24.017891
280.42099 70.761627
280.55188 47.042839
280.591003 4.673077
280.649292 9.745098
280.890289 18.77932
281.15155 245.298004
281.187439 1382.982056
281.317871 15.96354
281.350525 4.349638
281.454132 9.409347
281.512482 2.680556
281.529938 18.3668
281.606628 12.74242
281.748444 7.757576
281.890991 11.81341
282.55838 4.844298
283.134949 118.721802
284.475281 5.414216
285.072479 11.80293
285.158508 244.076508
285.930786 5.0
286.566467 9.022223
287.153473 24.0
287.391541 14.33621
288.151581 266.142395
288.328278 6.002778
288.932892 5.333333
289.339813 7.865196
289.447601 21.48333
289.583588 8.415
289.713043 13.84052
290.412506 10.85339
291.172028 969.835876
291.24292 8.0
291.285278 10.67432
291.326843 12.10511
291.416107 9.0625
291.456818 30.903669
291.552704 22.885969
291.600159 4.844298
291.76062 2.083333
291.87796 11.50521
291.998199 6.05
292.144226 43.88015
292.718079 9.428572
293.154755 748.792603
293.187805 2257.678955
293.253967 6.030556
293.275696 6.335
293.340698 31.278009
293.369507 4.013889
293.399872 41.04744
293.432678 5.041667
293.474365 5.335784
293.510101 5.355392
293.539825 5.44079
293.557159 6.786765
293.587799 19.494341
293.620392 6.394608
293.706573 45.040852
293.787323 25.048731
294.081238 24.613581
295.168488 345.746002
295.256165 3.125
295.309662 2.367424
295.566956 4.375
295.599854 7.880051
295.631866 9.735526
295.797272 9.679598
295.916962 15.47019
296.264252 31.26782
296.971161 14.37677
297.147156 933.609009
297.183807 507.745911
297.323639 12.375
297.359192 17.323271
297.403198 24.5947
297.492767 4.080128
297.585449 14.61706
297.66098 11.02126
297.757019 7.337302
297.877136 5.669445
297.937134 7.130208
298.561676 7.927469
298.610077 5.002778
298.880585 12.07407
299.197845 264.590302
301.164429 3.047619
301.309387 14.66774
301.328217 13.80556
301.385498 5.680555
301.460327 7.669445
301.540619 9.053572
301.605438 11.77174
301.652679 3.518939
302.155396 16.15254
302.246094 7.333333
302.568695 3.367424
302.966248 2.4
303.044952 16.947399
303.174408 3304.593994
303.249664 27.06436
303.275146 22.74568
303.330933 28.938009
303.347839 13.33991
303.376862 19.852171
303.41449 6.340909
303.466003 3.958333
303.518005 20.213671
303.627045 6.240079
303.705475 5.084758
303.744965 40.818161
303.796387 6.399193
303.85202 34.678741
303.908783 37.578629
303.932404 16.66243
303.984406 13.03
304.075592 7.054825
304.643036 22.70417
306.162292 16.07975
306.257721 12.57143
306.409332 10.05518
306.43985 14.44138
306.512665 9.341666
307.033142 7.5625
307.238098 13.0
307.421051 8.343469
307.452576 10.38095
307.482056 6.005556
307.683411 7.335318
308.168335 34.694229
309.183533 1004.719971
309.331696 8.525001
309.385193 8.666667
309.412781 10.35459
309.451294 14.42803
309.522919 7.335
309.654999 14.43627
309.756042 6.047619
309.789398 8.155972
310.043396 6.349638
310.104645 7.666667
311.054932 6.346264
311.136932 28.184839
311.161591 115.000099
311.202393 682.487
311.306549 8.667483
311.545929 6.173611
311.595123 9.075
311.712097 4.413462
311.762909 18.76342
312.079315 7.265351
312.36322 19.987949
313.113983 19.33824
313.17041 29.84444
313.923676 89.44445
314.025513 1.671296
315.15979 440.932007
315.234985 3.333333
315.268646 27.25205
315.383514 35.41148
315.414032 1.720238
315.67984 13.37083
316.147247 19.783911
316.496307 7.407407
319.113159 10.70833
319.25235 8.535714
319.275055 20.273149
319.374908 26.751499
319.405853 7.656609
319.423706 13.67262
319.570404 5.75
319.630402 13.48188
319.714142 14.81818
320.015228 16.667311
320.088806 12.96711
320.890289 20.093969
320.944244 82.843231
321.184021 5977.786133
321.260895 64.240128
321.291687 19.29167
321.358368 29.492571
321.395355 18.00198
321.468781 81.646423
321.487671 34.189308
321.529297 24.0
321.566711 52.681171
321.585419 9.830426
321.629089 5.422101
321.676483 12.32065
321.704559 24.733891
321.737183 16.56628
321.805664 18.22349
321.844727 31.22121
321.887787 26.066259
321.908142 5.225
322.047241 12.76042
322.103668 3.727941
322.322021 6.011364
322.597565 7.410257
322.940643 3.336538
323.003174 21.031179
323.47226 12.33409
323.872833 6.339743
325.676117 9.160088
327.1922 407.492798
327.531281 6.002778
330.093658 19.85714
330.524261 2.020833
336.081573 9.72
336.54715 11.41667
337.095032 10.09375
337.124176 11.56692
337.153503 12.54208
337.217743 41.049301
337.255127 24.044189
337.335266 16.9685
337.396667 2.0
337.441376 15.34409
337.463776 17.66667
337.486328 9.227151
337.523651 11.46833
337.547821 17.42178
337.589447 9.380952
338.243164 3.75
338.41098 5.148809
338.625671 12.44444
338.6828 6.673611
339.117798 33.197529
339.143188 37.4771
339.194611 7879.111816
339.275696 16.10985
339.350372 46.00061
339.391907 48.186798
339.412384 13.19066
339.480743 144.575394
339.513916 62.122429
339.547302 12.13564
339.623535 25.049379
339.689667 21.73214
339.722931 40.391022
339.741882 7.027778
339.759247 17.94154
339.795959 17.64035
339.822968 25.885059
339.869324 13.85468
339.926392 14.21338
340.01236 58.509392
340.038208 17.9109
340.060181 9.333333
340.078369 10.08333
340.286743 45.893311
340.845947 7.382936
340.907562 2.347222
341.067566 18.36364
341.497955 13.77965
342.263672 6.639493
344.62384 2.354167
351.525513 19.97336
352.819641 13.56466
354.880981 8.720238
354.953613 15.56347
354.994354 28.06225
355.042603 18.14822
355.095795 54.26852
355.128998 17.52286
355.17215 7.361486
355.198883 24.69536
355.224396 48.335369
355.269928 31.57361
355.29422 25.64496
355.341797 25.558411
355.373596 65.649879
355.421326 9.395202
355.572144 8.546718
355.670685 7.605556
355.902618 12.43106
355.992279 22.55752
356.544098 31.55682
356.636383 11.23359
356.865692 12.66975
356.944885 9.429762
357.026001 43.120491
357.17099 204.688507
357.20575 13853.469727
357.292938 179.974396
357.322937 24.02541
357.351379 50.710522
357.377502 25.79953
357.419556 38.40757
357.447754 103.655502
357.506561 105.971397
357.547791 102.301804
357.575348 22.67157
357.618256 59.069809
357.678192 9.680555
357.70282 31.128429
357.729187 22.37286
357.764404 16.02136
357.818695 71.217308
357.857056 68.5784
357.908234 81.327332
357.967621 18.06373
358.101135 26.83642
358.260681 19.72024
358.392944 31.78981
358.598297 23.35076
358.642151 21.349871
358.690125 7.935
358.970795 28.44075
359.123413 5.684524
359.235504 3.047619
360.377136 9.725274
360.727142 7.019737
360.985107 7.909483
361.15683 12.39682
361.879669 8.680555
362.116119 9.669871
362.463745 10.33333
362.709778 12.52355
363.089874 17.03582
363.50592 10.07428
372.771149 1.680555
375.216156 470.924805
375.497559 2.016667
375.558228 3.003788
375.79126 21.106701
375.921356 9.466666
376.141632 6.541667
403.135437 8.5
427.557281 14.5873
502.315125 21.7558
665.705261 18.20076
757.997681 16.497129
1011.790466 11.96014

