>compound Arenicolide A M+Na
>formula C45H72O12
>parentmass 827.4915984440904
>ionization [M + Na]+
>InChI InChI=1S/C45H72O12/c1-11-16-35(48)42(54-9)44-45(6,57-44)39(49)21-15-20-38-43(55-10)41(51)32(5)28-31(4)24-26-34(47)37(53-8)19-14-17-29(2)27-30(3)23-25-33(46)36(52-7)18-12-13-22-40(50)56-38/h12-13,15,18,20,22-29,32-39,41-44,46-49,51H,11,14,16-17,19,21H2,1-10H3
>InChIKey BKUKTJSDOUXYFL-UHFFFAOYSA-N
>smiles O=C1OC(C=CCC(O)C2(OC2C(OC)C(O)CCC)C)C(OC)C(O)C(C=C(C=CC(O)C(OC)CCCC(C=C(C=CC(O)C(OC)C=CC=C1)C)C)C)C

>ms2peaks
108.058846 40.131321
109.028358 31.301781
109.061264 37.728569
111.042145 31.24143
119.045723 28.27424
123.040779 115.057899
124.051491 38.43327
125.05616 212.774094
125.080185 26.51207
131.08844 43.75568
135.038315 30.144051
137.059601 29.31296
140.083084 102.0951
141.086136 44.73019
145.061478 48.276611
153.053314 24.780649
164.043274 82.37561
164.079575 44.762791
165.045517 43.471909
165.092361 55.192101
169.084213 302.916901
169.116211 30.31115
170.085602 34.51606
175.067795 44.06765
176.077682 26.064659
177.088943 75.30204
177.12648 23.8263
180.076691 34.29615
184.075684 102.876801
185.074341 24.75135
191.069336 40.200001
193.083328 177.600494
193.123291 50.505112
195.101807 109.025398
196.100159 24.653299
197.114395 101.628197
198.121735 38.099998
201.120331 36.66465
202.132004 40.202271
205.083588 160.966202
205.122604 34.68824
206.084137 47.470268
207.097916 48.239521
209.114532 44.538872
217.07933 35.289131
217.118301 59.30637
218.125671 46.242241
219.131866 25.290001
223.133224 51.045872
225.110321 377.390808
225.143768 33.18906
226.113113 74.196609
231.081299 23.601191
231.134735 79.000092
233.112747 37.811249
233.151367 491.570892
234.152161 57.763439
235.092255 110.427696
235.130127 29.536169
236.096634 31.53511
245.146667 60.085709
246.157959 24.40044
247.164795 40.91724
248.138519 23.123529
249.107178 24.61894
249.139267 23.406441
251.126099 51.326092
252.120575 24.408331
253.140472 44.62775
257.139801 23.00025
259.132568 34.667801
259.167236 170.952103
260.175781 52.133148
261.148071 135.943207
261.181152 177.4776
261.221924 24.30652
262.14975 32.426182
262.188477 108.802299
263.120453 54.160358
263.201508 39.099998
265.102875 45.652939
265.138763 29.616671
266.102753 32.188461
271.135925 32.987759
273.146484 40.933331
275.165192 57.104729
288.172668 34.550819
289.177795 40.628571
291.152435 28.560329
291.189301 73.693787
295.150238 83.635292
295.178772 34.18026
296.15979 28.779631
297.177032 55.956921
301.134277 22.783701
301.182404 39.002781
303.159546 53.17028
305.18219 53.400829
306.180023 23.15
307.153473 91.801086
307.200226 24.205561
311.204742 28.01667
312.203094 58.43214
315.156982 24.080669
315.188263 29.104309
317.178497 68.844368
318.182007 45.279011
319.188385 30.60833
319.220795 26.245449
320.190613 24.78026
321.166351 146.136002
322.174103 178.2659
322.213898 35.664009
323.184326 947.185913
323.231873 87.025002
323.266571 34.512501
323.303955 22.963329
323.352509 25.62759
324.189209 199.253799
324.221893 46.155769
325.191376 39.359192
325.21933 42.022369
327.189392 39.041512
329.174164 30.04777
329.213318 173.529099
330.217743 86.860001
331.16333 26.102501
331.189636 85.59417
331.221252 50.0881
332.199554 34.44268
333.201233 43.130619
337.163086 1924.56897
337.215149 117.112503
337.335388 41.01667
338.165283 369.307098
338.197144 44.663059
338.220764 25.392389
339.173706 59.806671
339.227722 36.50658
343.231964 36.33511
345.206787 24.608561
346.174194 29.35652
347.184601 82.237747
349.16098 29.40312
349.200256 69.873512
350.220673 24.726561
351.179413 310.691711
351.22583 31.633209
352.187744 297.230988
352.228149 34.043091
353.187775 84.396698
353.247223 40.325001
355.220795 121.044899
356.23584 111.285896
357.240173 337.299988
357.30191 29.93611
358.24646 123.770302
359.182556 66.522324
359.213867 46.445
359.250336 26.00333
361.202087 41.593971
363.218628 66.832817
364.219482 28.88205
365.193939 88.278107
371.235016 32.01429
373.200317 40.75
373.233246 188.512299
374.235687 31.317209
375.212708 35.591862
375.232086 29.422859
377.190857 27.878229
379.209473 178.813904
380.217468 46.559212
381.237213 23.079399
385.233734 567.17688
385.290741 49.79166
386.236084 159.911102
387.250153 470.305908
388.259064 130.232895
389.235504 29.26436
389.264404 53.518921
391.20874 30.13633
392.250122 26.422501
393.225739 70.975258
394.232697 38.89444
399.252899 34.400471
401.234344 131.347198
401.265015 39.654751
401.302734 27.65263
402.230255 48.032909
403.250732 79.974998
404.263092 25.064289
405.194702 22.713039
405.223267 42.599998
405.250854 49.97847
405.276428 37.70866
412.252716 28.8307
413.267517 137.344894
414.27121 91.044022
415.256622 54.818279
417.262146 77.400589
418.267883 28.84045
419.237579 55.830219
419.267303 25.40741
420.248169 35.712502
421.258545 39.06945
425.266663 22.816669
429.259918 182.535995
430.259705 66.296417
431.23822 44.975811
431.261322 26.064289
431.295959 25.634319
432.2789 30.066669
433.255157 152.639999
434.261566 75.443901
435.271179 51.978081
435.291534 33.534721
436.270416 40.387001
436.300049 65.800003
437.280029 32.736328
437.304962 34.15921
441.275635 47.91029
443.256439 27.011789
443.280426 28.988239
444.278992 27.64971
445.25354 53.229759
445.28299 44.71489
446.258087 27.728001
447.268951 106.815399
448.276428 68.387779
449.271515 63.028309
451.29184 79.406448
453.292328 108.228996
455.264465 33.51429
456.292816 25.76552
459.272125 59.252941
461.283936 115.941299
462.296082 59.276409
463.264221 31.469931
465.296478 769.361084
465.450287 24.00042
465.501099 23.11381
466.308167 206.996506
467.294373 50.371899
469.300232 43.238239
473.288055 114.142899
473.322205 47.099998
474.298615 64.674393
475.268768 222.781006
476.275269 85.800774
477.282928 885.952515
477.336609 110.550003
478.28894 233.801102
478.341431 28.008329
479.288391 131.963501
481.292084 52.747131
482.286377 25.81538
483.30899 534.59198
483.373596 55.427589
484.312042 264.720215
485.285461 62.64962
485.310364 83.798828
485.34198 23.68
486.326904 31.40476
487.282684 62.666439
487.304199 42.831409
488.322876 38.800789
489.292206 40.55862
495.270416 51.03915
496.26886 34.099442
497.286041 61.87941
497.31311 52.413319
498.296326 69.942436
498.330933 25.20042
499.292542 29.156931
499.32724 40.46154
500.347321 27.673679
501.28772 43.83049
501.340271 26.64451
502.292328 54.467129
503.301514 102.2631
504.312073 43.519741
505.275269 209.822296
505.376221 25.31082
506.286804 53.869549
508.304688 22.82045
509.297241 64.714287
509.331268 29.21818
510.294037 27.376089
511.312897 144.011002
512.306335 56.568859
513.310486 68.202812
514.317383 25.13846
516.296387 39.37862
517.317139 59.648151
518.315247 42.150002
519.288574 66.001671
519.342468 24.060961
520.297546 94.184959
521.334961 35.248909
523.333557 26.92
527.304565 319.613495
527.399658 26.30208
528.30127 146.721298
528.340454 82.500961
529.310669 42.334999
529.345093 55.032669
530.363892 38.343208
531.342957 49.844509
531.370483 79.098267
532.330811 33.09
532.366821 37.605251
533.310852 69.684479
539.334229 134.111603
539.377563 30.510349
540.338074 102.672997
541.356018 67.119888
542.361267 51.00687
543.334778 69.600143
544.325684 25.956249
544.369385 31.421049
548.338989 25.716129
557.341675 55.650002
558.350769 73.506561
559.362305 1471.66394
559.521851 47.170509
559.588379 36.898972
560.365417 689.319092
560.441589 73.917213
560.649475 24.99231
561.360596 196.893402
561.402649 58.138889
562.363892 38.12711
563.370789 418.661591
563.467896 25.214291
564.377319 199.479294
565.368164 55.700001
569.344543 99.015503
570.394104 31.017611
573.372864 120.207001
574.383606 42.452171
575.35675 1192.880981
575.420898 114.0261
575.500427 25.138889
576.357056 637.989319
576.487305 36.20409
577.364807 163.869507
577.43457 30.15152
579.389954 23.85
583.373169 24.681669
587.347839 47.929298
588.378357 26.38135
589.377136 151.873795
589.437744 27.47348
590.374634 166.494293
590.444885 31.644449
591.363159 87.764076
591.387634 83.839996
592.365967 48.54435
603.391724 170.414398
603.450317 27.023149
604.374756 68.775589
604.400085 45.228519
613.376343 53.31163
614.380371 35.05143
615.388855 26.91468
618.378906 44.943878
619.395142 81.66394
620.387024 59.310768
620.409546 41.807529
621.405701 27.364479
623.385986 37.329109
624.388672 35.807259
625.37323 214.282593
626.377686 90.73703
626.415894 29.27273
627.369385 54.773411
627.426453 66.210457
627.475281 22.781349
628.427002 25.27108
637.407043 55.415668
643.413391 103.211403
643.438904 60.401619
644.42926 83.468384
653.395325 47.400921
655.421448 553.047119
655.496277 43.40834
656.420105 358.4216
656.540588 24.43952
657.42865 152.896805
657.483459 31.75
658.434265 42.97794
666.420105 31.40556
667.412109 56.51598
668.421326 43.40617
669.445068 29.313641
670.436401 49.604881
671.411621 262.200195
671.491516 24.3946
672.415344 156.018799
672.464966 37.64542
673.421265 51.743801
681.395264 23.59292
683.405273 33.345459
685.429626 1067.121948
685.575806 34.629761
685.911987 23.336361
686.433838 1042.151001
686.668701 24.617861
686.976807 24.04138
687.436707 402.44989
687.501221 58.795952
687.54364 41.625
687.674316 25.450001
688.450623 119.267303
689.426025 40.045441
693.423828 91.41761
693.449036 40.85405
694.431946 39.291672
703.44519 38.81538
704.442017 62.036758
711.443481 27.48447
721.458679 26.00227
733.467468 47.779591
734.454712 29.60025
734.474487 38.76371
734.50238 23.328211
735.495361 53.990101
747.473816 27.80125
752.487793 25.639999
765.492981 1101.584961
765.65155 33.96056
766.496582 1038.072998
766.64325 36.951729
766.778259 28.83432
767.025879 23.81111
767.49762 240.219498
767.562195 39.360001
767.596741 28.50403
767.680298 29.6
768.501282 68.822258
768.629395 23.012501
783.50415 117.925003
784.50531 52.02232
785.492371 27.022499
795.466675 31.273781
796.474792 46.781078
797.484863 39.135109
808.970215 29.607759
810.490906 29.473471
827.208069 23.168631
827.492737 8153.772949
827.753174 210.041702
827.841125 103.849998
827.901733 63.488091
827.98877 72.344643
828.02594 43.547218
828.117126 44.978569
828.239502 58.491508
828.265076 52.26667
828.318604 44.488892
828.495056 5936.293945
828.760132 70.879463
828.855774 36.61721
828.935913 27.352989
829.055969 24.203039
829.309753 39.02496
829.3797 36.169628
829.499878 1837.569946
829.644226 110.385902
829.721924 79.868057
829.76123 56.438808
829.812988 50.026829
829.917419 39.921829
830.009888 41.383591
830.042969 28.236099
830.122864 28.20146
830.200256 35.687168
830.25415 31.95117
830.299072 32.74939
830.338074 30.865259
830.500427 467.534088
830.583862 56.74403
830.648804 41.933102
830.695557 58.15173
830.743225 34.834412
830.930298 30.490511
831.154968 24.550461
831.217651 23.643681
831.259827 28.00086
831.432251 37.658241
831.512634 64.096573
831.625122 29.93388
831.700439 26.264641
831.774719 33.152012
831.828186 28.65106
831.890625 23.23308
832.101929 24.77597
838.642883 23.37561
1340.106689 27.75317

