>compound Saliniketal B M+Na
>formula C22H37NO6
>parentmass 434.2513086040906
>ionization [M + Na]+
>InChI InChI=1S/C22H37NO6/c1-12(7-6-8-16(11-24)21(23)27)18(25)14(3)19(26)15(4)20-13(2)17-9-10-22(5,28-17)29-20/h6-8,12-15,17-20,24-26H,9-11H2,1-5H3,(H2,23,27)
>InChIKey QWSYKJZSJYRUSS-UHFFFAOYSA-N
>smiles N=C(O)C(=CC=CC(C)C(O)C(C)C(O)C(C)C1OC2(OC(CC2)C1C)C)CO

>ms2peaks
101.426796 10.30658
103.0541 13.91607
107.08741 30.356251
109.001862 12.04808
109.018631 15.94405
109.066452 12.18598
110.061798 19.06402
111.044006 22.290001
111.0802 26.409781
113.02224 15.26944
113.095001 13.02988
114.952354 26.608999
115.056305 30.493521
115.076248 10.84545
116.045883 10.97786
116.968925 19.31406
119.047195 14.61324
119.085022 32.61071
121.062782 11.3391
121.098999 35.359112
122.057289 30.280001
123.079681 64.090263
124.113724 11.42045
124.556496 15.51136
124.994339 25.905001
125.096703 13.135
126.092911 13.19211
128.05304 13.715
129.073059 12.4843
131.084152 13.56333
133.061539 14.58526
133.101593 18.214291
135.01561 17.61731
137.045059 18.638041
137.971725 12.21731
138.025513 13.78227
138.090393 11.625
139.005768 42.23
140.015549 19.603571
140.041702 12.73409
140.964096 10.61667
143.087311 24.405001
145.016907 10.21667
145.104797 32.561291
146.060684 39.744011
146.10968 17.15556
147.03714 20.36216
149.022156 10.42237
149.034454 12.97647
150.981079 16.033331
151.061264 21.22057
151.074219 24.921431
153.09314 10.725
154.981155 22.888889
155.084579 12.0
159.086456 25.001921
160.072952 13.97622
161.078568 32.92112
161.091675 19.062071
162.087006 56.816719
162.126999 10.525
163.091934 17.025
164.031036 22.9125
164.116943 21.924999
165.031448 10.4
165.072144 15.83975
166.491653 10.9
167.062256 19.35
168.056107 14.26944
169.103989 11.57857
171.126526 10.025
173.033478 10.76
174.100739 18.89423
176.040298 11.969
176.065536 22.039709
177.001358 12.95577
177.029617 15.025
177.069061 18.075001
177.096588 17.533331
177.11734 10.26447
178.041809 22.13088
178.084656 185.4543
178.11203 29.403259
178.130676 13.88333
178.507782 14.20833
179.069077 43.18182
179.096985 24.00227
179.112152 25.069441
180.09259 23.47769
180.119095 10.845
180.146378 16.42045
181.086746 15.45
181.131607 10.605
181.470703 11.01176
190.083267 815.207825
190.116379 68.800377
190.212372 19.80167
190.246231 12.14569
190.384689 20.051611
190.701523 11.13611
190.737778 11.05
191.089294 84.416008
191.133881 12.60278
191.595184 10.515
192.011429 11.3125
192.093933 14.43636
193.096008 14.41894
194.026505 16.799999
194.090576 10.03952
196.588989 14.882
196.608124 11.53879
197.133331 16.4004
199.134857 27.51837
202.075012 19.82222
203.107895 18.583469
204.025574 16.512501
206.076813 52.45472
207.101273 13.01184
208.364914 14.625
216.570587 12.24
218.116135 54.41782
219.108475 31.629629
220.021088 12.48929
220.109818 29.008329
220.136414 10.825
221.112534 155.853806
221.152985 23.2533
222.025528 15.01607
222.075699 14.44198
222.121368 19.92812
223.12059 18.40132
227.14917 11.52803
229.047104 10.2
230.06073 14.08889
233.122391 18.827169
233.820633 10.32
234.056656 22.387899
234.101746 31.133699
235.045212 13.925
235.106506 14.06786
237.110703 48.8564
238.080841 10.01
238.121048 23.07412
240.120621 15.135
242.150131 16.61231
244.120483 12.79593
245.847717 10.74412
245.924179 10.5125
247.149658 15.45714
247.183075 11.17813
247.301834 10.23952
248.126755 430.723907
248.189087 48.338001
248.276581 12.2
248.336456 10.2125
248.443939 11.61731
249.006042 11.42353
249.130066 91.461807
249.158508 21.825001
249.203537 12.075
249.770187 10.71136
250.136642 14.735
250.857864 15.62826
250.936005 18.512819
251.125595 16.283331
253.113724 11.80714
255.07991 13.968
255.940811 10.67778
258.151184 42.992649
259.12912 12.60119
260.048035 15.04516
260.141541 24.871611
262.044983 11.61184
262.162354 19.42222
263.128448 10.22045
264.110138 13.45
264.134186 11.80417
272.166443 12.08643
273.18576 19.0
274.143433 32.64542
274.181854 11.9
275.052063 26.98369
277.142487 30.440451
278.146973 42.91468
279.10849 16.08889
279.157654 180.357895
279.237457 12.0
280.155792 32.200001
280.411102 14.33389
281.06134 20.679819
281.171753 27.779209
281.86792 10.78409
285.086487 14.53088
285.11319 14.62717
287.628113 11.60278
288.157532 118.628098
289.156403 38.442249
289.193817 11.52071
289.565033 16.205
290.104645 12.2
291.15686 18.752781
291.195251 63.106529
292.164581 19.304029
292.199219 33.09116
292.507141 10.6
293.119415 12.31429
293.173096 13.26944
294.076508 31.865391
295.110443 13.60192
295.144348 61.025002
295.474823 11.66532
296.157806 34.82016
296.19342 15.10658
306.167786 394.832489
306.204529 40.89534
306.242188 21.125
306.289917 10.98
306.3367 14.20238
306.921204 10.95921
307.16925 125.276703
307.219696 13.825
308.173096 16.44224
308.205688 11.86538
308.813416 11.13426
309.149719 28.629999
309.181824 24.034571
309.603119 16.91468
310.06778 15.23462
318.208374 20.646429
325.136536 11.60109
326.129028 13.01111
333.169006 10.15
340.089539 14.475
348.091034 21.0
349.161285 16.014999
350.113953 10.40093
351.110718 10.625
354.091156 17.111361
355.135864 18.65625
355.239471 10.44537
358.176575 15.32704
370.427643 11.045
373.218079 28.615
373.243805 15.8
374.239929 40.52903
375.216064 11.69
376.203247 12.62237
389.226257 24.360001
390.220917 29.5688
391.212585 30.803699
391.278015 10.09
398.232635 50.01017
399.222504 140.209106
399.303741 17.58
400.238739 15.06944
402.220947 17.426611
408.161346 12.98478
409.744781 11.65952
414.854187 14.0125
416.2435 177.663101
416.272736 31.128
416.33551 16.049999
417.236572 184.235504
417.835693 10.6
418.169312 12.80278
418.230896 46.534698
418.253174 58.864319
418.402008 10.04167
419.2435 19.4
419.533478 13.81225
419.803741 11.8
419.844849 10.00132
420.708771 11.06944
430.420959 14.26667
432.231812 10.98
433.47348 14.42857
433.909332 10.11136
433.93689 14.8
434.252136 2257.856934
434.379852 54.485722
434.441284 51.81097
434.48999 39.712502
434.613495 19.625
434.685394 34.273129
434.728241 20.25326
434.787537 19.970449
434.885956 15.40454
434.925446 18.866671
435.003693 26.17753
435.042664 17.64167
435.100281 15.58823
435.1427 15.6689
435.18866 17.1
435.256134 1178.29895
435.445953 41.000721
435.499054 23.22813
435.605591 17.632
435.650543 16.80064
435.767944 17.03289
435.800018 10.46447
435.871185 21.20833
435.923126 19.60833
435.992676 24.497999
436.030396 29.583691
436.25943 449.963715
436.322113 59.188461
436.538391 12.01333
436.587494 13.84091
436.610199 14.42222
436.691833 25.054449
436.80304 10.51136
437.000031 12.9
437.096375 10.33088
437.23587 90.040092
437.267365 85.893806
437.371582 16.084299
437.477081 11.425
437.626587 11.40192
437.66925 16.725
437.73587 14.21184
438.008636 10.04
438.098999 22.341669
438.260864 14.20417
438.41333 10.535
438.575409 10.62857
438.634705 10.40278
438.875854 11.20357
441.169891 12.82857
441.304718 14.08643
444.364166 10.61324
453.358246 10.73426
479.593262 12.475
532.524292 13.40833
591.833923 10.67935
994.588074 10.19527
1100.26123 10.00978
1222.468384 13.48929
1294.216309 10.07206
1300.738647 12.58
1326.812866 14.07206
1349.312744 11.04643
1449.440918 11.125
1618.46106 10.60952
1647.442749 10.4

