>compound Sulfameter M+H
>formula C11H12N4O3S
>parentmass 281.07028769609053
>ionization [M + H]+
>InChI InChI=1S/C11H12N4O3S/c1-18-9-6-13-11(14-7-9)15-19(16,17)10-4-2-8(12)3-5-10/h2-7H,12H2,1H3,(H,13,14,15)
>InChIKey GPTONYMQFTZPKC-UHFFFAOYSA-N
>smiles O=S(=O)(NC1=NC=C(OC)C=N1)C2=CC=C(N)C=C2

>ms2peaks
146.99675 19.0625
148.047073 15.53565
152.955582 39.673908
209.992081 43.306938
224.932861 25.76025
225.01123 55.92046
301.341766 10.75574
303.013672 45.808632
303.051697 1868.980957
303.125977 10.97283
303.257965 10.78125
303.289764 12.25
303.37439 14.87981
303.807556 10.52854
303.974152 11.6125
304.268646 13.73765
304.454071 11.53735

>ms2peaks
146.851868 16.026779
146.996231 37.21431
147.035767 97.656273
147.100494 15.66975
182.971527 89.544006
303.045563 41.479729
311.001648 13.38333
678.874023 18.39456

>ms2peaks
103.007828 90.814461
103.111839 14.80474
118.998566 52.83432
134.957062 35.00132
1097.727417 20.69389
1107.707031 19.258801

