>compound Arenamide A M+Na
>formula C36H57N5O7
>parentmass 694.4150198640905
>ionization [M + Na]+
>InChI InChI=1S/C36H57N5O7/c1-8-9-10-12-15-24(6)29-20-30(42)37-21-31(43)41-32(23(4)5)35(46)39-27(18-22(2)3)34(45)38-25(7)33(44)40-28(36(47)48-29)19-26-16-13-11-14-17-26/h11,13-14,16-17,22-25,27-29,32H,8-10,12,15,18-21H2,1-7H3,(H,37,42)(H,38,45)(H,39,46)(H,40,44)(H,41,43)
>InChIKey HQEBGENSMXBRMP-UHFFFAOYSA-N
>smiles O=C1OC(CC(O)=NCC(O)=NC(C(O)=NC(C(O)=NC(C(O)=NC1CC2=CC=CC=C2)C)CC(C)C)C(C)C)C(C)CCCCCC

>ms2peaks
108.082428 33.918549
112.037033 388.790009
120.081703 179.857498
140.068588 560.647888
140.101593 45.356369
141.0728 36.166012
142.063049 33.250568
151.085526 26.270981
152.141266 35.97855
154.08429 165.604294
163.080078 24.455681
164.065933 200.976105
164.092102 25.648149
165.070404 36.927341
166.050064 39.09655
167.14447 66.512306
178.088486 30.86096
188.06778 261.144989
189.072037 24.38636
197.090714 100.837997
206.153458 45.381989
207.108582 34.448978
207.132736 32.01178
207.14949 44.131458
208.145752 26.41399
223.06778 155.621094
224.075867 24.203279
224.135513 36.112358
224.163269 81.777573
225.12059 606.150879
225.165863 51.03981
226.120743 90.822189
233.126282 76.916458
234.127182 30.89819
234.156616 37.604481
235.103546 75.881752
235.140442 33.458328
245.162048 90.683388
246.148331 414.081604
246.192688 34.616482
247.148911 72.811493
251.101974 25.27413
252.173676 56.833031
253.108521 29.016121
253.152359 404.562103
253.185486 46.778412
254.154358 59.108589
259.104828 68.167793
263.134155 46.011902
263.174988 277.609406
264.157898 6051.571777
264.309692 133.744507
264.348877 61.005348
265.107727 27.81506
265.160736 871.160278
265.313019 27.20821
266.162476 83.2658
267.141113 55.84866
274.149597 24.90917
275.134613 38.05682
278.185333 168.246597
278.209625 24.00012
279.131683 31.370291
279.188385 30.08312
289.187531 32.722618
290.150818 96.288338
292.160919 27.69463
293.146149 98.660477
293.170227 29.33683
301.22345 37.29546
304.166718 31.428749
305.202637 28.3459
306.182709 60.223969
307.16037 43.820709
310.175171 161.739395
311.181427 32.616451
313.121643 45.45509
317.221008 6944.708984
317.388855 120.263397
317.430634 30.889231
318.223938 1346.415039
318.392792 28.320049
319.227142 162.354599
320.234314 30.715
323.206696 120.751801
324.191223 1425.154053
324.360718 37.496601
325.192688 206.0448
326.19165 45.149872
327.19162 27.124399
328.202515 58.629662
329.219391 91.998199
331.238159 47.81855
334.177032 83.545563
335.207458 110.374001
336.153625 340.947296
336.236084 27.81913
337.154724 96.782288
340.676483 33.68737
344.232178 1278.401978
344.406952 29.801769
345.219543 851.328613
345.390961 26.377159
346.175049 123.8713
346.217834 147.291702
346.269623 38.928089
347.17511 49.737381
347.223572 29.5277
349.164764 30.255899
350.164642 64.848137
361.182007 50.271481
362.188354 27.485979
362.242737 522.654175
362.421143 25.47176
362.68573 43.020451
363.227264 17715.410156
364.230072 3667.635986
364.41037 77.787064
364.458282 53.424961
364.567261 27.49332
365.23233 486.808502
365.321625 36.179211
366.238983 49.10928
372.192017 270.479401
373.194 74.174553
379.191833 40.060188
381.210663 241.667297
381.259918 27.45455
382.177704 66.82608
382.214142 77.32354
383.139771 28.467461
388.26001 158.657593
389.257599 46.075142
390.198853 24.004721
391.206757 38.91029
392.211029 26.92395
396.229858 24.52364
405.21048 31.79361
407.191101 492.870911
407.247528 41.664379
408.197083 94.103256
412.290161 61.357738
413.248138 60.674759
414.313049 63.53455
415.314331 27.18972
416.239929 27.18289
425.257111 61.284809
426.257721 40.832981
427.267212 67.163673
430.305725 6327.625977
430.500092 83.650307
430.551239 29.99494
431.308441 1767.515015
431.414276 47.109631
431.456116 30.78747
431.50235 42.66243
432.313019 262.000702
433.318268 43.517361
440.217896 102.479698
440.289398 31.335011
447.226349 32.80917
453.250641 26.81818
457.316833 439.147614
458.303558 677.08313
459.304382 313.62381
460.301147 44.42424
461.237793 33.457661
461.277008 24.884359
462.243744 80.315964
463.249786 38.000549
471.260803 346.276886
472.265106 145.169006
472.307251 48.71978
473.262238 33.878429
475.32785 539.861023
475.38858 68.60743
476.311646 19212.539062
477.203796 37.697441
477.314911 5681.413086
477.467957 91.940338
477.518066 118.387802
477.579163 57.991119
477.679626 30.82827
477.720245 26.19009
477.756775 26.11783
477.792145 32.73291
478.113953 25.577299
478.317047 842.583618
478.425232 46.27327
478.51413 28.48526
479.32077 117.172203
480.3125 24.763479
481.243835 40.581219
482.277679 121.746399
483.287109 41.476391
483.329407 63.97924
485.347076 100.602402
486.348297 48.91872
493.246582 60.13271
494.243256 31.980129
495.259613 32.323769
501.342163 3020.066895
501.477783 68.016533
501.547699 58.38158
502.009949 26.201031
502.345795 1053.96106
502.837036 28.051319
503.352509 259.282288
504.349335 50.54184
528.288025 61.648392
528.350647 45.67046
529.33844 327.939087
530.341919 159.756393
531.342346 45.349819
532.28363 55.86031
546.366211 521.409424
547.349548 17903.039062
548.249451 54.02702
548.352112 8319.007812
548.570312 190.575699
548.632202 95.365067
549.025146 33.468361
549.101501 32.756641
549.354675 1426.810059
549.509644 42.822521
549.574707 45.001202
549.635071 26.31179
549.687744 30.88973
550.359192 150.770203
550.434082 30.82358
554.264282 161.568207
555.262207 71.643944
560.312073 39.114281
561.310547 27.43796
564.308228 26.63929
588.337036 25.697281
648.412231 242.362396
649.419373 96.024406
650.428162 162.392593
651.433411 83.253922
666.411621 42.502869
676.416931 44.709702
677.399231 40.710011
677.45874 24.01012
688.656738 25.41856
688.732422 36.467758
689.034058 28.338289
694.417969 23910.689453
695.420959 15725.469727
696.423523 4227.0
696.605347 98.703163
696.668945 78.745323
696.729553 40.334629
696.76947 48.990891
696.840271 24.15937
696.894836 34.73901
697.045166 27.473579
697.425354 698.63678
697.497986 80.059662
697.549072 53.717449
697.647766 32.54615
697.6922 30.34635
698.013489 28.24935
698.30249 26.80995
698.438965 30.41032

