>compound A1865_Dolastatin_12 M+Na
>formula C50H80N8O11
>parentmass 991.5838760800905
>ionization [M + Na]+
>InChI InChI=1S/C50H80N8O11/c1-17-30(7)41-46(65)52-26-38(59)56(14)36(24-28(3)4)44(63)51-27-39(60)58(16)40(29(5)6)47(66)57(15)37(25-34-22-20-19-21-23-34)45(64)53-32(9)42(61)50(11,12)49(68)55(13)33(10)43(62)54-35(18-2)31(8)48(67)69-41/h19-23,28-33,35-37,40-41H,17-18,24-27H2,1-16H3,(H,51,63)(H,52,65)(H,53,64)(H,54,62)
>InChIKey MLDFWFKDAWCBSV-UHFFFAOYSA-N
>smiles O=C1OC(C(O)=NCC(=O)N(C)C(C(O)=NCC(=O)N(C)C(C(=O)N(C)C(C(O)=NC(C(=O)C(C(=O)N(C)C(C(O)=NC(CC)C1C)C)(C)C)C)CC2=CC=CC=C2)C(C)C)CC(C)C)C(C)CC

>ms2peaks
292.041199 16775.0
303.059204 234541.0
304.767456 68110.0
331.996948 51430.0
350.859741 24924.0
370.131226 41386.0
384.364563 312871.0
388.975952 47996.0
389.955994 37672.0
390.677795 197975.0
407.233948 16742.0
410.2547 17275.0
411.83136 197599.0
418.078857 422600.0
419.271118 71923.0
431.182495 17509.0
445.134277 53847.0
453.217773 36049.0
462.088928 89446.0
467.108887 7513.0
473.198364 39761.0
478.38562 33332.0
483.097107 442528.0
490.928711 21074.0
495.166504 124064.0
501.014771 157093.0
502.786865 192484.0
504.165344 162270.0
505.226318 23674.0
508.266235 387223.0
509.226624 38947.0
509.99292 217488.0
519.157959 104297.0
520.377441 288331.0
522.256836 31392.0
523.007568 158985.0
532.288757 273697.0
540.20282 427515.0
541.160828 1223135.0
541.829956 6.0
545.261963 101642.0
546.351318 116909.0
547.404419 6199.0
548.479126 70159.0
549.940613 238253.0
552.039307 75122.0
555.499756 44841.0
561.033447 245904.0
565.204346 377492.0
566.234131 118818.0
576.28717 50399.0
580.048035 326272.0
580.755493 2.0
581.332764 365111.0
587.188843 205331.0
588.366577 104230.0
590.090698 159273.0
592.34668 180009.0
594.41095 639210.0
596.386658 324626.0
597.075928 276136.0
598.253296 101119.0
602.384521 198727.0
606.182251 331562.0
607.423523 938092.0
614.141479 134227.0
616.401611 567473.0
616.966309 102890.0
618.06543 61416.0
619.352295 144619.0
620.647095 261044.0
621.46167 31943.0
622.162476 73059.0
623.390808 418788.0
632.189209 595040.0
633.338379 249616.0
634.32312 365698.0
637.116821 629598.0
637.693237 1.0
638.515625 67601.0
644.155701 439122.0
644.837158 13328.0
651.327759 2138155.0
652.28418 199853.0
654.233948 2568688.0
655.183289 2.0
660.272217 5591.0
661.355225 305352.0
661.874756 84028.0
663.318054 916691.0
664.064087 91053.0
667.297852 141549.0
669.486572 560361.0
670.222168 2.0
670.861328 37542.0
675.332092 391673.0
676.044434 1.0
677.254883 298814.0
679.377686 138661.0
680.991821 378340.0
689.335815 881021.0
690.384766 16653.0
691.188477 147592.0
693.446655 471939.0
695.046021 154359.0
699.157715 108565.0
705.410278 515501.0
706.415466 314286.0
707.086365 768742.0
707.883301 1.0
710.15918 217332.0
711.201599 2750935.0
715.196533 137392.0
717.241211 59240.0
720.255005 531593.0
721.334167 475078.0
722.091309 194183.0
723.341003 1220604.0
724.391846 99265.0
725.515686 102491.0
729.021729 529863.0
729.740479 358917.0
731.590332 111627.0
737.102539 140045.0
739.346191 306809.0
741.39209 14256.0
744.232544 125263.0
745.199707 90716.0
745.94281 508168.0
747.027283 580241.0
747.618042 18103.0
748.141663 451349.0
749.319519 1783093.0
750.047485 2.0
756.314209 249346.0
758.387939 24307.0
760.730469 51696.0
762.756104 227940.0
763.416016 141258.0
764.480225 279310.0
765.940125 697244.0
766.561523 178025.0
773.736084 245285.0
774.617004 2382291.0
775.334167 1509282.0
779.430298 45789.0
782.369019 2604349.0
783.083252 1.0
785.5 32073.0
790.177307 441548.0
791.325684 288589.0
792.193604 136485.0
792.791748 104517.0
800.454346 147201.0
802.445068 261069.0
806.259216 133680.0
807.183044 156268.0
809.414673 234194.0
812.26709 63674.0
814.196655 149838.0
818.34021 1084460.0
819.293213 1.0
820.453857 453166.0
821.305298 136347.0
823.184387 298993.0
825.548584 676247.0
828.376221 103125.0
829.311035 418875.0
830.088745 1.0
832.299683 269056.0
834.700317 37936.0
836.201599 305827.0
836.810425 175683.0
837.428711 1037616.0
838.410461 1.0136671E7
839.147644 3589.0
842.419739 270457.0
846.272217 1119350.0
846.961304 12.0
848.300415 3384685.0
849.498779 117823.0
850.322083 1351046.0
850.977783 34.0
857.342773 81813.0
858.463928 1754067.0
859.34967 3273399.0
860.394653 6061840.0
861.153381 460169.0
861.658813 87514.0
862.463623 142799.0
864.307495 5295648.0
864.916748 4168.0
875.464783 1202526.0
876.378296 27581.0
877.266968 2097350.0
877.912354 478925.0
878.577637 1.0
880.435181 77726.0
887.508545 445586.0
890.396851 4829246.0
891.148804 5971.0
892.267029 3820535.0
893.039612 379776.0
893.706604 662472.0
895.259766 33545.0
895.775024 56571.0
903.034912 169288.0
905.414856 1.4596656E7
906.223022 2150.0
907.260132 161879.0
917.422485 27920.0
918.185181 72147.0
921.386597 5624868.0
922.166626 4.0
930.431824 428475.0
930.974243 86895.0
933.551392 86830.0
934.356934 1991251.0
935.009521 549.0
945.328247 1896847.0
946.122192 6.0
947.384583 3844388.0
948.041565 44.0
963.433289 1.0540434E7
964.054199 1369.0
973.369324 7401906.0
974.085754 3332.0
991.457153 4542578.0
992.166565 29.0

