>compound Ifosfamide M+H
>formula C7H15Cl2N2O2P
>parentmass 261.0320961620905
>ionization [M + H]+
>InChI InChI=1S/C7H15Cl2N2O2P/c8-2-4-10-14(12)11(6-3-9)5-1-7-13-14/h1-7H2,(H,10,12)
>InChIKey HOMGKSMUEGBAAB-UHFFFAOYSA-N
>smiles O=P1(OCCCN1CCCl)NCCCl

>ms2peaks
115.963402 24.46368
120.055222 31.760559
153.977692 36.040031
165.865402 61.058609
182.014862 23.039221
232.990036 39.722069
233.003311 29.67391
252.744415 5.371913
255.79541 10.57576
259.256958 18.18391
259.325348 20.83275
259.347015 30.7377
259.407928 22.672279
259.500214 25.321989
259.542267 22.040899
259.581879 40.26939
259.617554 7.008333
259.704956 5.335784
259.740051 16.37163
259.764679 14.58828
259.817108 18.66116
260.148499 5.19853
260.378998 5.354167
260.423126 16.26111
260.474762 2.722222
260.705109 11.48761
260.985992 31.256411
261.029358 11111.070312
261.097931 19.01894
261.141418 57.35746
261.175262 12.03333
261.192413 18.665001
261.219971 35.87595
261.237732 2.669444
261.260223 4.688725
261.290039 85.630547
261.323181 59.01664
261.358673 50.874882
261.391541 4.387821
261.432007 57.05769
261.451447 11.35088
261.490265 44.806141
261.527496 18.559681
261.556366 18.403299
261.580841 6.458333
261.614594 14.41879
261.677185 23.55472
261.693176 37.683331
261.738464 9.358974
261.761261 42.420109
261.945892 53.123932
262.113007 16.070511
262.549316 11.20119
262.739716 7.856884
262.818848 13.48333
263.237152 14.19032
263.290466 15.16177
263.390045 4.675926
263.566223 25.22464
264.220642 10.08333
264.701599 21.334089
268.353394 8.727273
269.11972 5.054487
390.04483 40.976978
443.859406 35.4128
518.022217 6.668104
518.426453 17.45336
521.049133 84.708344
521.503967 12.77394

>ms2peaks
106.007118 18.502939
120.054657 16.448721
141.980637 19.479731
153.983231 91.303429
154.156387 11.19947
181.690948 2.666667
232.30806 3.336538
232.998627 304.277313
233.046753 14.96333
233.386017 14.07843
233.570862 5.260417
233.656799 6.075617
256.970734 6.05
257.071136 9.469594
258.987946 16.76115
259.323059 13.11432
259.478149 26.8547
259.491974 20.534309
259.505249 13.30769
259.536804 8.435606
259.564819 10.33333
259.600677 28.6486
259.621033 24.03965
259.648895 8.4375
259.713257 6.891666
259.727295 1.666667
259.76712 7.698412
259.789062 4.763889
259.843994 5.791667
259.875885 16.00379
259.951355 2.449074
260.075104 14.33418
260.12561 3.36218
260.221008 20.369619
260.400604 44.98877
260.473724 19.123739
260.529724 9.907051
260.674255 19.688601
260.821808 5.667929
261.029572 10041.80957
261.094147 14.00595
261.119385 42.343472
261.143127 8.673612
261.170013 41.790939
261.21167 43.949329
261.256317 28.589769
261.290314 21.24889
261.316406 12.67803
261.335266 26.794609
261.374817 25.720091
261.409058 14.77394
261.428497 21.352539
261.466217 17.655769
261.507721 19.081079
261.531067 54.14278
261.565857 54.03627
261.603638 13.00758
261.649414 9.736112
261.783417 8.341311
261.811798 26.97484
261.978394 20.385691
262.364319 8.518678
262.554199 11.5641
262.673584 14.41379
262.919128 10.55147
263.098663 1.791667
263.446472 3.413462
263.479065 6.490385
263.570892 22.710501
266.135437 13.0
266.180847 4.681667
266.714111 12.85417
267.112335 6.787879
267.235992 5.115741
270.679047 13.26453

>ms2peaks
106.004555 20.082689
106.023026 2.020833
115.96769 18.22315
118.001907 24.41667
120.019539 24.493361
120.057007 334.526703
120.760979 5.430555
122.570946 3.148809
125.94928 25.89189
125.98838 8.041667
126.97271 42.382271
127.966393 25.037041
128.022202 84.336456
128.098297 6.022059
140.98381 18.54825
141.450073 13.0744
141.980392 142.893906
145.67659 11.3373
146.037949 77.547409
146.854782 8.698232
147.3694 10.83
153.000992 8.685185
153.980835 808.212585
154.035461 1.720238
154.066162 8.818548
154.161362 12.07419
154.182312 2.669444
154.239456 4.669445
154.256241 6.001984
155.242447 16.024191
164.979797 5.703947
180.932098 6.053572
181.166138 7.666667
181.504501 14.67014
181.963058 17.09375
182.012527 843.30957
182.0522 14.42787
182.113434 5.742284
182.150787 3.342592
182.197739 6.020833
182.286972 1.666667
182.404419 4.037037
182.687408 8.595239
186.2034 6.633772
190.037689 13.70127
199.013367 12.09122
202.983414 28.40741
217.982208 47.67712
225.048935 29.56057
231.598099 5.333333
232.957581 7.382936
232.997635 1102.983032
233.063034 9.700721
233.167831 17.66716
233.284256 14.16667
233.401627 11.24575
233.577087 6.201666
233.789795 12.72115
233.878784 5.336111
237.195724 3.025
259.615295 15.65278
259.727386 13.36012
259.74173 17.02083
259.912445 5.005952
260.041443 7.028153
260.208923 4.816667
260.385529 9.66811
260.72522 8.388888
260.996033 18.579269
261.028778 3642.938965
261.102844 20.00543
261.166779 7.103846
261.187134 13.64477
261.241852 31.54945
261.257111 12.62976
261.278412 33.28463
261.320038 17.38043
261.344757 23.05492
261.473938 8.705247
261.634399 9.52729
261.722198 29.91433
261.811554 29.3388
261.924988 11.4902
261.970093 7.111111
262.580475 3.0
263.177826 15.62745
263.23764 7.719017
263.875824 5.408333

