>compound Ramipril M+H
>formula C23H32N2O5
>parentmass 417.2383985760905
>ionization [M + H]+
>InChI InChI=1S/C23H32N2O5/c1-3-30-23(29)18(13-12-16-8-5-4-6-9-16)24-15(2)21(26)25-19-11-7-10-17(19)14-20(25)22(27)28/h4-6,8-9,15,17-20,24H,3,7,10-14H2,1-2H3,(H,27,28)
>InChIKey HDACQVRGBOVJII-UHFFFAOYSA-N
>smiles O=C(O)C1N(C(=O)C(NC(C(=O)OCC)CCC2=CC=CC=C2)C)C3CCCC3C1

>ms2peaks
178.082214 50.28376
256.122192 33.86993
293.135803 20.326611
300.677124 5.231482
302.127991 74.170082
302.148895 21.614031
302.428589 2.333333
315.612976 24.65661
436.417511 4.963235
436.627289 14.02344
436.838135 11.34205
437.289368 7.408333
437.441833 7.678764
439.220917 2480.510986
439.309052 7.725
439.437775 20.33404
439.493164 20.01543
439.556366 26.9224
439.611511 10.54924
439.671204 9.960366
439.714752 18.25198
439.751434 5.720238
439.809784 13.0236
439.970306 6.041667
440.15274 6.008333
440.317322 29.924601
440.350037 6.25
440.741302 10.98732
441.467499 15.03582
442.001007 4.016667
442.637787 7.360043
443.050964 28.19729
448.807281 8.347826

>ms2peaks
112.566772 11.89382
134.09404 26.52688
170.913589 11.94707
178.081573 211.040802
230.116898 58.130081
234.148285 69.570053
255.469467 18.41703
256.131592 237.848007
256.39975 9.463542
256.800934 3.013889
257.117462 16.506941
257.866882 18.647091
265.958099 46.755859
284.11734 52.076698
300.199707 7.347222
301.382874 5.371913
302.089874 12.07975
302.137177 491.672089
302.307617 11.69667
302.513916 36.73724
302.949127 19.24008
303.730743 5.668011
305.455048 9.346667
336.951294 20.63377
365.177673 57.651791
437.443756 5.414216
437.78598 3.375
438.112305 9.403735
438.257233 21.334181
439.21701 1356.438965
439.306519 3.335784
439.379211 2.027778
439.558105 4.583333
439.620117 5.339743
439.663879 13.15979
439.688812 7.757576
439.758667 5.133333
439.904205 7.714285
440.065186 8.843137
440.101746 13.0
440.437531 25.83803
440.824493 11.77381
446.362579 19.628269
450.282501 1.6875

>ms2peaks
117.067474 16.447531
117.386429 12.01014
130.090744 82.093643
130.273895 4.490385
134.095016 13.75439
134.246292 12.13564
160.114243 42.688519
162.16301 15.00872
178.081802 153.4953
178.136642 2.005952
178.308563 22.700001
179.085968 67.794662
228.093338 22.22917
234.141891 25.36915
234.152405 26.55331
234.393448 9.214286
256.126678 91.699997
283.054474 16.592739
302.14328 31.55784
1156.39209 9.450582

