>compound Ramipril M+H
>formula C23H32N2O5
>parentmass 417.2383985760905
>ionization [M + H]+
>InChI InChI=1S/C23H32N2O5/c1-3-30-23(29)18(13-12-16-8-5-4-6-9-16)24-15(2)21(26)25-19-11-7-10-17(19)14-20(25)22(27)28/h4-6,8-9,15,17-20,24H,3,7,10-14H2,1-2H3,(H,27,28)
>InChIKey HDACQVRGBOVJII-UHFFFAOYSA-N
>smiles O=C(O)C1N(C(=O)C(NC(C(=O)OCC)CCC2=CC=CC=C2)C)C3CCCC3C1

>ms2peaks
102.055351 205.592194
110.096016 151.677994
117.069588 1069.103027
117.160301 7.340517
117.228745 9.303386
117.235603 8.669102
117.269691 9.123292
117.294571 8.870614
128.764832 5.174603
129.385941 6.740942
129.508469 10.23444
130.085526 1521.834961
130.120911 11.46023
130.261566 13.40104
130.289169 4.724537
130.353821 18.4375
130.566849 17.251699
130.698593 10.56667
131.582916 4.898551
134.095932 764.471375
134.716934 9.817876
138.089188 15.48155
138.209244 5.265351
144.08107 43.122269
155.303619 3.413691
155.564224 17.347759
156.101669 2359.14209
156.150421 3.364583
156.532761 15.49346
156.642731 13.78014
157.736816 11.93503
159.452286 24.70396
160.111588 1849.587036
160.190536 5.006944
160.545898 20.25758
161.122482 16.80682
162.126648 85.542847
166.084869 3.836309
188.106415 38.833191
194.11824 16.356461
203.437592 19.94672
206.11795 92.229736
206.151672 60.822651
208.129196 15.08333
210.111282 33.919899
210.964447 9.711021
211.955948 18.072149
227.140793 21.66757
231.201431 4.300595
231.547516 6.87619
232.687317 14.34626
232.699585 68.033501
232.713196 3.776268
232.735977 120.623901
232.763779 30.088289
232.794952 32.759281
232.809097 34.11475
232.821686 9.688844
232.844086 14.61806
232.856644 67.24472
232.893219 41.240101
232.928268 34.501831
232.955902 24.89126
232.970612 43.41655
232.989197 11.83838
233.010757 12.20833
233.069931 17.631519
233.085526 9.760011
233.118149 21.639021
233.230392 30.426941
233.278076 10.53922
233.293671 20.18519
233.329361 12.55769
233.477997 20.924299
233.524643 10.56739
233.542664 7.776136
233.637573 12.35852
233.675201 11.69858
234.026947 13.68708
234.045563 14.06088
234.069366 17.692659
234.098785 150.470901
234.149124 48996.039062
234.368393 10.1625
234.403534 15.16461
234.431732 18.36009
234.461914 30.941111
234.499893 29.695169
234.52948 25.975019
234.559174 55.150848
234.605194 51.52673
234.619431 11.00149
234.64389 43.171341
234.678604 81.330833
234.693085 19.355921
234.760193 41.92421
234.784988 37.524189
234.802078 9.369253
234.816971 43.546928
234.860367 26.75716
234.890915 88.269867
234.912277 33.669048
234.933411 14.24855
234.953003 58.390999
235.011261 28.3162
235.219818 10.95694
235.541763 10.43939
235.85202 24.054729
235.916901 30.91254
236.450546 5.5
236.544983 12.67193
236.890244 4.479167
237.140305 11.3878
237.483917 7.092672
237.605606 3.514076
237.753708 7.354167
238.292465 11.00119
245.17244 9.666667
248.061462 3.852273
257.923676 8.190104
266.997986 6.473536
279.962921 6.558624
280.152008 61.963409
280.312653 8.401389
295.594849 7.681818
296.960114 6.670834
300.049774 20.014179
304.289978 15.66146
306.253326 11.72403
339.003815 11.5767
341.035461 3.685307
341.184875 4.852083
341.238281 12.07563
341.416382 9.373346
341.497925 13.94833
341.770508 3.453373
341.872803 8.833333
342.877777 7.225899
343.13205 31.945089
343.20163 6800.789062
343.247406 41.232071
343.281006 18.94792
343.301941 44.202381
343.339844 17.016069
343.366791 6.858232
343.415771 41.59124
343.438995 13.57895
343.468536 27.290211
343.489563 14.50198
343.508698 9.849648
343.574249 20.21369
343.61792 44.74292
343.678589 9.748311
343.7341 12.33417
343.874084 15.8047
344.037476 12.63383
344.101746 9.671474
344.156403 39.380951
344.437683 20.809521
344.637848 5.195652
344.708832 7.129808
344.829865 23.21043
345.247528 20.01902
389.204742 24.237499
389.507446 6.956207
409.874695 19.987539
411.541168 13.34591
411.816376 6.059675
412.058624 24.14115
412.351105 4.0
412.71344 5.500393
412.924469 15.40139
413.286133 12.50148
414.014282 5.172348
414.429413 51.545319
414.483154 140.638199
414.517761 158.167694
414.551392 175.826004
414.572968 42.042091
414.593719 183.186905
414.639435 231.599899
414.668884 187.703903
414.722504 250.058502
414.767944 324.082489
414.823547 245.743301
414.851532 141.156204
414.880005 181.115707
414.932251 137.582001
414.964233 188.320801
415.064758 160.505295
415.204285 167.2854
415.240967 32.253269
415.27179 30.520201
415.29657 114.093803
415.458313 14.04427
415.566223 93.870613
415.617676 105.672699
415.751129 76.245049
416.025421 59.18681
416.091187 16.84271
416.17688 8.919354
416.279785 43.10944
416.387756 23.55377
416.45105 57.62925
416.510284 22.16667
416.585419 32.171181
416.644196 36.61517
416.80249 48.01178
416.877747 34.434151
416.910919 47.83839
416.983826 194.130203
417.150696 272.7742
417.239716 230067.90625
417.672485 6.315633
417.867981 193.263199
417.923187 242.147507
417.959076 46.0625
418.028778 148.777496
418.05838 82.491966
418.080872 5.033333
418.113342 42.226379
418.136719 223.163895
418.187622 161.1082
418.326782 262.394714
418.457214 103.663399
418.510742 29.92297
418.552277 87.985367
418.593018 139.552002
418.661682 55.57402
418.707886 120.409401
418.741058 118.726196
418.895233 53.256069
418.969177 109.541397
419.008148 50.17696
419.298889 58.776619
419.411926 58.28891
419.516266 74.511383
419.576447 25.72567
419.625519 26.91901
419.680084 38.434818
419.78653 14.91361
419.825806 30.995041
419.852692 39.351589
419.953369 43.447929
420.109772 12.93511
420.204254 13.64063
420.258789 41.094231
420.482147 17.840071
420.666443 13.14588
420.710999 14.52192
420.91684 4.362179
421.031403 18.95714
421.180481 17.181549
421.32309 19.848961
421.395111 7.193333
421.598999 3.714286
421.723938 9.84
421.902771 10.94108
422.06665 10.87974
422.087463 7.460318
422.125702 5.414216
422.16037 8.853395
422.202454 7.880208
422.531403 17.16049
422.838898 7.50329
423.51413 7.668859
423.865204 14.33893
423.918762 21.239929
424.69574 8.966954
424.718506 7.982456
425.808685 3.878788
426.133972 5.575
426.468811 12.79592
427.360229 8.44016
428.968842 5.490385
429.957947 6.865079
442.60257 13.28656
444.31308 9.113095
522.920776 2.000906
531.52478 3.819746
547.083496 3.833796
589.911072 8.135802
766.633362 6.166667
1137.84082 25.37438
1313.532227 12.05357

>ms2peaks
102.055 799.862122
102.235535 7.802778
102.247749 7.468334
102.420128 3.463735
105.068886 99.802132
105.474876 7.748724
109.593491 9.500311
110.036377 19.18569
110.096199 507.843414
110.337608 10.1702
110.421768 5.513889
112.062614 33.819901
114.545746 13.3795
115.053528 155.237793
116.550629 8.054825
116.567642 24.87487
116.64119 6.833742
116.696892 12.34848
116.82885 4.969445
116.979439 16.50872
117.069763 4716.22998
117.115952 32.617569
117.177246 6.826993
117.229897 20.84206
117.251617 14.13252
117.280792 4.170833
117.292503 13.10684
117.314735 12.69162
117.358368 3.280092
117.401382 6.707992
117.420502 3.173611
117.43924 7.831156
117.469246 4.333896
117.554169 14.05857
117.573761 11.92754
117.594681 10.11111
117.797539 8.551042
118.075943 11.5003
118.231674 15.88333
118.299202 11.31779
119.085739 68.491333
129.069214 10.97646
129.381393 6.500409
129.502136 4.020833
129.531509 13.52976
129.683517 10.47348
130.060623 15.9037
130.085999 10244.860352
130.134552 53.05743
130.15123 26.120029
130.167038 14.37592
130.182388 50.710751
130.199326 7.198412
130.216675 6.945076
130.23764 3.926697
130.247818 17.712839
130.257462 17.853331
130.270813 30.915211
130.30603 29.191231
130.31958 25.209089
130.33139 34.916061
130.365845 9.3
130.391266 21.47121
130.430588 8.21007
130.443756 12.17361
130.45192 6.190104
130.466965 14.44293
130.506561 16.69278
130.537872 17.83869
130.55986 20.939489
130.641235 29.77606
130.993073 4.374167
131.086548 96.632294
131.198898 9.214881
131.343658 9.347222
131.831757 5.647059
131.962631 16.89295
132.358459 10.14081
133.477295 10.96757
133.535553 6.446509
133.570709 6.302083
133.799164 11.67143
134.096329 4571.061035
134.145233 28.800631
134.222153 9.173612
134.237961 7.510629
134.249512 14.30722
134.278091 27.56184
134.290543 6.847826
134.308243 4.440834
134.343048 5.602134
134.396042 11.65432
134.444138 9.397059
134.467819 8.502259
134.584839 7.072917
134.734528 12.41987
134.743134 8.729167
134.887695 7.833333
138.089996 123.293701
138.421722 7.805555
138.669464 7.653986
142.758896 28.700121
143.086838 29.1
144.04834 8.669102
144.081818 184.279007
145.06485 17.168209
149.136154 21.86166
154.088882 16.17226
155.2052 18.51042
155.250336 12.64904
155.262131 15.22748
155.28067 7.315476
155.308197 11.33515
155.318756 7.823253
155.361099 22.863199
155.375763 22.216921
155.474167 12.34157
155.534866 13.11204
155.963699 6.3
155.974335 9.126666
156.069717 42.041649
156.101761 9307.71875
156.153824 132.995697
156.165146 20.7672
156.19162 5.670139
156.214523 15.22165
156.228683 5.54327
156.246582 13.85006
156.277756 24.287331
156.299088 11.78974
156.315094 16.01515
156.338562 24.820021
156.356323 16.647921
156.444824 20.45417
156.461533 13.27917
156.481201 9.541667
156.510452 12.5
156.533691 18.014799
156.541809 3.888889
156.569275 27.14867
156.584702 16.051359
156.599014 18.365351
156.675064 10.01335
156.733521 10.50037
156.742691 10.2192
156.757797 10.62689
157.654617 7.629808
158.345779 4.855511
158.6203 8.061484
158.818817 12.05447
159.15564 6.33908
159.216003 8.107142
159.239044 6.762236
159.287323 3.190104
159.311737 8.405357
159.344421 7.558333
159.405441 2.033333
159.477493 14.27083
159.493347 14.34659
159.62442 12.24671
159.669556 3.169271
159.87085 11.46909
159.893906 7.718112
160.087906 7.01103
160.111862 9695.819336
160.166046 29.790171
160.183212 57.045719
160.209564 36.917431
160.232773 5.184627
160.244034 4.241071
160.2565 11.40224
160.302856 23.556311
160.329971 13.48487
160.351685 23.015829
160.367493 24.131701
160.387634 20.70974
160.40451 5.005682
160.435486 7.2
160.455353 9.083333
160.46817 22.79298
160.489441 6.86095
160.580658 17.38069
160.648788 31.030581
160.790039 6.127451
160.906158 5.538462
160.921753 18.25231
161.054306 12.04573
161.278671 42.500099
161.94873 4.433333
162.127258 453.845886
162.207275 6.028812
162.229141 7.725291
162.699402 9.084504
166.086899 35.424191
166.117508 16.78223
170.093826 14.46601
178.992355 16.077101
182.116791 41.946609
183.253983 5.428442
184.093506 104.012398
188.105743 91.674156
190.432602 3.667262
190.92009 18.293699
192.926727 20.72192
192.98558 3.802778
206.117844 447.163788
206.152649 295.443207
206.885117 15.64975
208.131638 33.989029
208.308792 12.84815
210.111801 32.24955
212.940933 4.479167
218.208588 9.870833
220.83609 9.614583
222.656403 6.541667
226.152145 19.60817
226.833878 4.280093
227.135803 22.956711
230.798477 10.39583
232.104614 11.8787
232.527893 7.692073
232.540726 6.887821
232.594437 7.4375
232.637268 15.25531
232.670837 51.431019
232.697006 42.6017
232.716125 68.51606
232.732986 74.154556
232.747849 108.294601
232.771744 286.760895
232.802658 342.818695
232.825073 3.016667
232.845428 166.929001
232.876465 188.165802
232.894531 68.665863
232.912964 244.667206
232.941254 267.665985
232.952927 62.959221
232.975479 163.904099
233.000198 114.661598
233.017273 131.580902
233.038696 30.70643
233.050995 149.802597
233.070511 69.186783
233.087204 8.921875
233.103882 74.934891
233.150818 110.608101
233.181122 67.366386
233.221924 91.246933
233.263474 48.730679
233.294128 30.239019
233.328659 42.53175
233.37146 12.60227
233.419937 23.078699
233.434525 9.039142
233.473129 13.3336
233.489258 14.861
233.52713 24.94665
233.557053 36.148941
233.624664 34.438759
233.657074 29.228439
233.697006 45.38728
233.988785 12.00536
234.097214 90.805939
234.149536 207449.203125
234.36702 5.748547
234.388321 6.171027
234.462585 13.39394
234.48996 10.02049
234.532272 19.16621
234.596481 101.922897
234.608932 146.352402
234.636597 126.647499
234.672729 229.631699
234.699463 28.65494
234.715988 16.17709
234.82962 147.898407
234.860001 172.479996
234.952728 21.062389
234.995102 8.755952
235.024094 36.611752
235.067001 5.960127
235.082932 64.476593
235.237579 12.62366
235.274765 37.141178
235.344559 27.113819
235.379318 64.604958
235.419403 63.134251
235.452972 33.23864
235.471634 20.644039
235.50174 29.052219
235.524567 22.966169
235.567627 36.46859
235.624924 25.6905
235.662613 8.651351
235.702332 19.056641
235.728577 48.56826
235.768539 51.664959
235.968033 37.906239
235.987427 29.397869
236.053833 9.856482
236.11528 23.814199
236.138535 3.336806
236.185364 9.901153
236.264816 10.64828
236.306625 7.106771
236.363373 30.851299
236.40274 17.19504
236.52861 30.32793
236.65802 16.5744
236.74614 20.44491
236.882553 7.108871
237.075012 25.86562
237.182144 8.500947
237.229691 40.06881
237.251343 13.52766
237.290115 21.931589
237.305389 4.500563
237.351593 11.46002
237.39801 20.72039
237.438934 10.6749
237.472534 9.612969
237.620621 3.75
237.997223 7.17444
238.659256 8.595239
238.78157 15.09677
239.477142 8.474359
240.230042 6.185957
242.07193 4.667298
253.12674 3.609069
262.144196 20.90028
270.744202 13.04095
272.162933 184.499695
272.234375 11.167
273.113342 7.292929
274.577179 43.02446
280.155182 112.617798
280.481995 7.997248
281.198303 8.670343
293.24292 5.336111
297.197144 38.555241
321.49939 2.265931
325.187897 63.627041
340.635468 8.126985
340.929138 7.814859
340.998535 11.84759
341.026337 13.03859
341.08429 46.48867
341.114746 7.120192
341.141876 18.06023
341.165527 13.66705
341.191559 13.1875
341.213409 66.031311
341.245361 6.823253
341.268158 38.405708
341.329712 29.158051
341.391449 24.398069
341.42923 19.390779
341.460693 59.496761
341.520538 14.0
342.053986 16.62668
342.183472 7.190217
342.252838 8.296474
342.375122 11.16667
342.497162 3.984543
342.625793 3.694257
343.132111 221.303406
343.202209 23069.130859
343.331238 3.861824
343.384369 25.15659
343.401154 17.066071
343.443665 7.442345
343.465637 57.190281
343.546936 33.67004
343.594818 65.200089
343.699768 21.665979
343.743896 17.86552
343.777527 26.782209
343.814789 53.168739
343.868164 30.961439
343.88446 47.6171
343.922455 36.69701
343.946228 15.5
343.991547 22.346689
344.019928 50.81868
344.057587 38.633308
344.27066 3.5
344.297302 15.43361
344.652405 15.52466
344.974365 8.177696
345.078522 12.45387
345.099457 7.846688
345.273102 12.50298
345.542633 3.176471
345.840912 10.8625
347.479736 4.36397
348.809631 3.537809
353.171051 13.90179
355.24054 31.160851
356.664398 2.780092
357.755768 42.806
371.194275 24.24194
387.184845 10.66002
389.206512 15.7905
399.226837 85.828194
409.997131 8.080808
414.356171 15.35494
414.450928 25.662769
414.493774 41.340179
414.545258 15.11414
414.575745 14.00264
414.60788 40.830551
414.656311 71.866096
414.715332 45.763401
414.749084 64.693733
414.794525 48.19997
414.822937 26.22736
414.865936 40.249149
414.930054 32.355228
414.962128 42.878929
415.076569 29.96314
415.126984 8.227544
415.396362 7.172619
415.524414 8.983949
415.69101 13.01109
416.219269 5.0
416.248047 10.24107
416.297333 6.720238
416.4039 24.656099
416.503204 4.166667
416.567413 7.388889
416.603149 6.472826
416.981781 35.095581
417.147064 154.412598
417.177979 10.5
417.239075 36367.570312
417.52002 19.282049
417.570648 16.999121
417.602631 48.85466
417.679474 16.3183
417.706055 16.279091
417.745819 21.775749
417.783508 27.843889
417.823242 9.260417
417.856903 20.318279
417.89743 22.988621
417.936188 82.330902
417.958588 10.29221
418.002594 107.8508
418.031738 36.591648
418.058533 24.86039
418.088806 40.722969
418.169708 68.17942
418.323181 9.8825
418.343811 26.99436
418.483795 23.55633
418.529724 48.046909
418.591278 33.340141
418.651764 14.3125
418.698761 20.451811
418.734833 14.44767
418.763733 39.929329
418.814514 28.70682
418.920715 11.18652
418.979462 34.04771
419.298126 6.284722
419.390747 9.867424
419.619385 17.804371
419.960876 4.84741
420.025696 3.942935
420.224731 2.7075
420.310455 11.0049
420.597534 7.37633
420.809662 11.66893
420.909607 5.352594
424.346161 13.3795
430.860809 4.409274
431.437134 11.24351
450.954498 7.366421
480.74588 14.72454
712.189514 34.682571
723.741577 10.97963
828.529114 11.74754
854.441223 5.020833
892.409607 5.121212
965.92334 23.10907
1517.454468 13.88911

>ms2peaks
101.506592 6.041667
101.521523 6.988215
101.550774 7.013355
101.558937 8.0125
101.574196 11.48438
101.583839 6.679167
101.615463 13.6995
101.632935 12.3337
101.656746 25.27499
101.692566 6.170656
101.710106 6.208333
101.738113 20.50926
101.78582 3.880953
101.794327 2.166667
101.801376 2.505952
101.839966 2.520833
101.858665 5.320513
101.86454 5.000366
101.881409 10.36578
101.918869 24.042471
101.966881 6.449253
102.004913 4.034091
102.033974 3.595109
102.055092 12065.820312
102.100853 15.00189
102.113167 17.144051
102.140205 9.850396
102.171036 27.11237
102.179932 9.774857
102.20211 12.57491
102.211754 44.970291
102.23587 24.74984
102.245544 38.815929
102.267357 16.789221
102.274529 14.9072
102.292107 18.05645
102.300072 11.34028
102.315872 2.517045
102.322197 10.24798
102.335297 28.955009
102.34465 34.523781
102.363739 5.056018
102.376968 9.09341
102.384911 3.802778
102.3993 39.666
102.410271 13.17385
102.437668 3.334052
102.462036 13.54952
102.46936 6.570402
102.475464 4.354167
102.490486 1.5
102.503136 13.06636
102.51519 5.947662
102.523247 19.12948
102.542427 12.18969
102.560951 6.647467
102.570992 7.531746
102.611076 7.278241
102.684669 11.68314
102.701805 6.133333
102.723946 6.629902
103.012474 8.000425
103.030151 7.711957
103.056999 50.27224
103.094391 5.55787
103.224365 2.722222
103.358719 5.121212
103.369331 4.173913
103.429047 6.440025
104.259026 4.011905
104.294548 4.539244
104.504272 4.166667
104.888725 4.081317
105.069801 661.747986
105.113228 4.229167
105.119881 5.548611
105.15992 1.170833
105.248001 3.691468
105.273949 8.080808
105.502434 4.175
105.52375 3.518518
105.556038 6.458333
105.656136 2.179167
105.674019 4.620192
105.906616 7.020127
106.139488 5.183435
108.0802 38.923611
108.102455 1.908333
108.277466 10.17917
109.102829 37.779209
109.146004 4.836538
109.313675 9.246678
109.531586 7.167092
109.581329 6.000595
109.63855 12.67343
109.702774 3.833796
109.761047 3.907738
109.768341 6.167385
109.925156 8.0
109.990814 4.054824
110.096497 4801.425781
110.142853 14.75994
110.153214 13.32793
110.173203 9.847222
110.192207 32.3465
110.213562 6.388158
110.228004 3.85
110.26461 9.338542
110.274658 18.418011
110.301201 6.58188
110.308716 13.13863
110.334068 10.44293
110.348587 6.834105
110.363159 1.502976
110.372421 3.9375
110.38887 5.351191
110.402649 5.667298
110.416145 9.500564
110.445396 9.966968
110.480736 8.615942
110.497948 2.981618
110.520668 16.659081
110.546097 6.333654
110.557121 5.460318
110.620934 10.63076
111.078941 24.54146
111.092072 41.84396
111.099609 63.060879
111.117851 14.20939
111.161316 10.0173
111.179787 3.66723
111.462418 6.343161
111.534851 16.7815
111.570206 1.592803
114.915543 5.411574
115.05397 627.291321
115.113281 2.027412
115.187943 6.335
115.214859 8.0
115.314934 6.835417
115.704018 8.020061
116.156929 8.016305
116.391113 10.54449
116.398308 10.01796
116.409332 3.779166
116.418358 10.4
116.428223 13.19157
116.435524 7.574405
116.452301 8.030303
116.460739 13.84833
116.474304 14.36667
116.48391 70.191597
116.511192 71.062714
116.526337 26.635349
116.544571 32.183361
116.557915 68.123039
116.587456 43.874401
116.615982 52.817879
116.628433 21.02759
116.655823 37.353241
116.679268 11.30105
116.686279 5.171027
116.704941 11.98878
116.715408 3.401389
116.7276 14.00198
116.750832 30.635321
116.761879 12.1976
116.768974 6.925287
116.780342 20.122181
116.795624 6.41832
116.818596 17.20513
116.826698 7.653986
116.85994 20.407169
116.881447 7.381548
116.912201 8.554825
116.918983 4.25
116.945564 7.002083
116.960823 12.57302
116.967545 6.7625
116.998558 5.052632
117.070137 64127.238281
117.283447 12.74374
117.304543 30.27976
117.316872 23.13221
117.33847 14.2701
117.391876 36.998211
117.402924 78.776443
117.419312 8.107732
117.429649 37.849861
117.442917 35.987869
117.460907 13.74028
117.467384 54.374908
117.494446 54.08894
117.514565 33.6828
117.523888 18.11598
117.53067 16.352909
117.543167 19.66815
117.562737 42.434521
117.579933 28.53973
117.58886 14.63361
117.604904 2.560049
117.613388 30.67461
117.623192 25.12685
117.633507 13.56806
117.639656 29.75551
117.653755 13.05774
117.661613 4.708333
117.66909 41.23679
117.679344 6.493421
117.687729 8.233334
117.703232 54.107052
117.711487 12.50718
117.73745 39.435169
117.76445 4.466912
117.779984 10.01458
117.804619 13.55556
117.835983 8.069445
117.846725 12.44315
117.87532 6.205883
117.922295 28.821039
118.116119 12.7381
118.131683 19.89941
118.144859 9.487644
118.172882 9.609012
118.203896 11.38294
118.216995 8.666924
118.251625 6.370833
118.302666 23.62077
118.334099 4.413462
118.356995 22.94912
118.587051 9.920027
118.615471 7.930871
118.810486 4.389881
118.870155 5.333965
118.899078 15.16597
118.953186 5.647059
118.970932 4.069444
119.168312 3.338691
119.221489 7.025641
119.234787 4.625
119.473579 3.826993
119.541504 7.779321
119.609917 4.556327
119.676498 3.520833
119.830025 4.836309
119.856705 7.34
119.880066 6.501984
120.40799 3.506944
120.448616 5.743806
120.486603 3.401389
120.534561 3.729167
120.646378 5.566431
120.971397 1.166667
121.055595 8.842709
121.064262 49.678268
121.812088 3.826993
122.096397 28.345449
122.172066 5.704166
123.197632 1.851852
124.804108 3.953373
127.053688 20.1875
127.247505 6.3125
128.061447 282.093811
128.096024 10.45062
128.111328 2.501389
128.28923 3.609069
128.397964 5.255435
129.199707 5.081644
129.310776 6.688726
129.317825 5.902778
129.340179 3.080044
129.37886 15.92917
129.389999 32.22353
129.402298 18.435049
129.417099 8.857142
129.424927 8.166667
129.437469 11.22917
129.444626 8.041667
129.459442 13.55556
129.472794 77.699142
129.480118 8.039245
129.500778 3.685606
129.510086 49.92371
129.528137 16.227631
129.534637 32.23674
129.551773 28.38139
129.563278 12.8588
129.580933 25.788111
129.600616 4.333333
129.613129 14.14632
129.628738 14.58715
129.648468 12.79993
129.663635 5.095833
129.670456 6.167439
129.682083 6.717803
129.698288 8.760417
129.716782 7.428452
129.737976 6.633333
129.761185 15.06921
129.769928 6.001984
129.79715 4.181818
129.817444 8.238095
129.856689 5.065217
129.91832 25.05867
129.958923 14.06124
129.977142 7.969477
129.985229 4.297619
130.017914 8.061769
130.086243 36845.148438
130.147003 85.105408
130.174957 14.52174
130.193726 16.33889
130.235184 22.283421
130.275055 16.754061
130.309738 54.83009
130.322983 11.89637
130.351105 22.96839
130.365143 40.775211
130.414017 43.303459
130.444016 61.067551
130.453629 18.868071
130.480835 10.93972
130.48819 2.8375
130.511673 31.539591
130.525055 54.06028
130.558258 50.05407
130.574966 8.7116
130.592331 23.120001
130.605759 21.31743
130.638031 46.810181
130.667923 16.03961
130.692368 14.28097
130.702225 7.891958
130.722504 21.75449
130.753433 15.36944
130.767059 32.219688
130.833664 9.039134
130.869507 7.503677
130.886002 9.026786
130.893463 5.502778
130.929504 17.272579
130.963501 20.2215
131.044876 4.009868
131.128387 4.166667
131.165421 14.01687
131.291534 10.84776
131.391357 8.34058
131.447464 6.211957
131.492386 9.009137
131.72052 20.524139
131.746719 9.69724
131.790771 5.602134
131.870407 4.333333
131.881912 4.540948
132.033783 7.638888
132.058685 3.65308
132.079437 32.97995
132.490494 7.10947
132.642563 3.87037
132.666595 3.505357
132.76886 12.56427
132.911148 8.580358
133.061996 124.787399
133.204086 5.015625
133.22818 3.006466
133.309265 3.80303
133.31662 7.242816
133.332535 9.345834
133.34465 6.000484
133.35318 11.21013
133.361588 2.092803
133.379333 17.11606
133.392838 13.67388
133.409302 5.729167
133.420959 11.50034
133.441177 10.93254
133.47377 35.62672
133.498077 7.779167
133.50647 13.87956
133.517456 3.391523
133.523758 15.58055
133.541321 19.83345
133.565872 40.69276
133.577759 8.209086
133.618332 8.022223
133.630981 23.495649
133.64209 5.369238
133.658371 8.540013
133.674377 7.225291
133.70285 21.340481
133.730988 4.527244
133.742661 2.691468
133.794952 2.014423
133.807159 4.627604
133.855194 29.986589
133.888123 13.58601
133.911087 7.860577
133.935745 8.515
134.096405 16990.310547
134.143906 22.14583
134.181824 6.306159
134.219849 23.484051
134.228836 45.259869
134.240173 42.20314
134.256851 3.875
134.274246 3.833841
134.281479 65.476761
134.293472 8.689311
134.30632 11.56088
134.328094 60.965199
134.345047 29.508619
134.364975 46.739552
134.39183 40.614159
134.423004 41.240379
134.434601 35.840599
134.452621 11.9399
134.472946 10.59477
134.501038 36.11557
134.519165 25.56745
134.544434 31.599951
134.578796 10.98155
134.603775 20.87834
134.613495 10.70673
134.629242 8.008828
134.641113 24.97776
134.653442 7.170076
134.673111 6.195652
134.685669 33.928539
134.755539 9.205258
134.839081 33.71838
134.892532 24.55652
135.031509 21.576639
135.058868 12.40935
135.078766 66.300957
135.166702 5.380952
135.17981 18.00498
135.252518 8.786765
135.449905 5.004808
135.47084 11.19855
135.604279 11.65522
135.823654 2.14881
135.850281 10.91465
135.996735 9.043403
136.059097 4.713362
136.244644 8.313611
136.297485 7.720052
136.398987 6.983948
136.516846 6.001437
136.661652 6.533333
137.180237 9.02558
137.535126 4.714881
138.090942 660.988708
138.162277 8.250833
138.203201 4.591961
138.266449 4.377604
138.279419 15.30753
138.29689 4.568056
138.388931 5.840909
138.403 16.177059
138.454422 6.838542
138.495361 2.0
138.663269 4.217803
138.726257 3.504167
138.745331 6.752541
138.777802 6.704166
139.071869 3.444444
141.068817 10.26955
142.341507 2.0
142.624344 6.653409
143.084839 390.168213
143.368607 6.16713
143.385193 5.049603
143.439362 3.581317
143.476471 10.7328
143.532394 3.351293
143.547714 6.88436
143.852142 5.371913
144.080612 788.541626
144.156921 7.848485
144.211349 4.512703
144.348602 4.197304
144.399261 5.622874
144.438644 4.066123
145.063141 105.362701
145.098846 15.26127
145.408432 8.869253
146.106857 22.297529
147.079437 8.398026
147.242645 4.1875
153.074402 15.375
154.086243 131.4189
154.122009 28.446051
154.252213 3.185185
154.389343 11.27614
155.100021 3.041667
155.170914 3.826993
155.195145 16.719339
155.210892 21.857109
155.251846 2.844445
155.268646 1.8375
155.278 3.828305
155.288727 10.25
155.316895 6.801667
155.360352 5.208333
155.381912 5.695269
155.390045 7.689394
155.403595 5.480072
155.473221 3.860746
155.488235 15.04274
155.517105 39.762951
155.60434 2.575
155.811722 3.490385
155.91423 6.213362
156.101608 7743.991211
156.154602 106.231598
156.198242 6.128103
156.241699 5.480183
156.255295 4.540948
156.279083 28.24976
156.297623 30.437941
156.331131 9.305357
156.352905 21.51074
156.361328 1.791667
156.380234 11.04489
156.394989 4.722994
156.415573 29.71492
156.441818 5.640625
156.458694 10.54167
156.53331 4.967262
156.554947 4.500906
156.564957 26.65534
156.592087 24.3832
156.611755 38.37112
156.627838 22.122181
156.663849 11.00041
156.697327 15.73992
156.732468 14.5728
156.74704 6.927536
156.786011 19.018641
156.88356 6.127451
156.938263 3.841486
157.815475 1.833333
158.148544 21.241541
158.440338 4.9
158.611389 4.3075
158.787186 9.676536
158.910553 6.556019
158.918732 4.5
159.072266 3.8625
159.106079 5.375
159.120529 2.14881
159.130768 5.833929
159.142532 20.667231
159.153412 33.419449
159.179321 11.79257
159.187744 18.029169
159.207947 5.6875
159.217331 20.965429
159.234268 29.814711
159.250595 17.71771
159.273834 42.890671
159.29068 28.863199
159.302841 14.63043
159.32724 23.983801
159.341522 23.99103
159.35376 3.185606
159.361984 4.342593
159.375412 59.97588
159.397156 42.055111
159.421814 17.993589
159.432251 1.5125
159.454041 19.363319
159.470703 17.844721
159.49263 55.52317
159.518387 8.866667
159.528397 87.224892
159.558228 9.131194
159.572937 8.333742
159.594604 1.729167
159.603622 17.010189
159.636139 25.953489
159.669739 19.11517
159.739899 4.33716
159.755463 8.600839
159.839478 12.42667
159.849838 6.015625
159.905441 2.09375
160.016891 6.710013
160.060516 13.34722
160.080353 39.261398
160.112061 36211.679688
160.300903 15.55403
160.323883 12.96094
160.356995 30.943359
160.426895 32.402969
160.471848 52.820431
160.503143 30.771629
160.536484 48.833199
160.549942 4.864268
160.561691 21.24575
160.579224 48.826881
160.588638 5.088816
160.604919 52.424351
160.639389 49.875549
160.664886 30.8018
160.67337 54.271881
160.684677 34.078918
160.701477 13.12311
160.71077 52.081341
160.722031 15.16151
160.756302 18.575211
160.776169 23.091789
160.800751 26.5797
160.815857 22.410879
160.830673 32.902908
160.849884 13.40774
160.86554 4.697601
160.921158 15.95171
160.929245 5.435417
160.947479 15.08759
160.960205 7.897348
160.987686 17.876129
161.00882 17.389441
161.086349 65.035622
161.230469 20.931339
161.246216 3.375
161.292831 14.11598
161.407333 9.046312
161.421494 20.68119
161.441132 8.891204
161.458496 4.520833
161.485275 17.176161
161.549957 19.755119
161.612228 11.01349
161.742325 8.011363
161.844589 7.599064
161.857391 5.06813
161.968048 7.21423
162.384537 7.861008
162.457657 5.5
162.721588 2.840833
162.814804 1.361111
162.891617 10.60668
163.067245 15.08674
163.436859 4.166667
163.74968 4.9
164.10968 33.439522
164.126953 5.885057
165.353577 4.095238
165.371902 24.63512
165.50087 4.826993
166.031067 1.833333
166.119202 71.475838
166.609741 4.475379
170.095169 73.641129
170.235123 1.886905
170.303284 3.537809
171.235275 5.401464
171.298676 5.880952
173.606079 3.705882
178.12532 95.693459
178.341354 10.95385
178.401291 4.882936
181.181442 2.694079
182.115921 99.585327
184.093613 84.205643
184.13414 8.041326
184.223831 4.336538
186.984055 2.942402
188.106171 213.839798
188.22113 5.072024
188.789658 5.911574
191.533569 1.843202
203.217331 2.866667
204.954956 4.440834
205.576645 1.777778
205.845306 4.541159
206.117081 1167.786011
206.153641 271.936401
206.210663 8.385869
206.234802 2.711051
206.369873 7.342593
206.405899 1.074405
206.435043 10.46825
206.495438 5.429167
206.594681 3.1875
206.610275 3.889661
206.795166 7.347222
207.18013 7.393009
207.430176 8.539245
208.991791 5.993351
209.12265 7.084822
210.111511 10.6421
210.972961 2.920139
219.094101 5.668478
227.160538 17.55625
230.753876 5.648148
231.621933 4.194221
232.634003 2.683333
232.666382 9.082309
232.68187 10.51146
232.731171 49.423168
232.763077 22.08456
232.779526 3.5375
232.819824 62.54623
232.844452 55.56905
232.907104 21.084499
232.93837 14.71464
232.96077 7.510417
232.980957 23.90893
232.995773 13.44306
233.016342 18.00668
233.042755 9.002799
233.080063 4.420259
233.12114 50.7976
233.146606 5.899457
233.192505 11.7381
233.210754 5.013889
233.295425 5.190373
233.384262 8.264544
233.547134 10.18002
233.565506 6.824404
233.606049 3.169118
233.714294 3.6875
233.789215 8.570252
233.888901 11.90829
233.94902 11.77011
234.090973 134.005005
234.149033 17311.099609
234.213791 17.366159
234.257629 7.174819
234.292145 9.692073
234.329498 43.92944
234.364639 17.208679
234.37796 15.16667
234.403046 54.55835
234.415863 37.135349
234.429611 31.285789
234.453125 75.015083
234.478012 6.75336
234.490829 20.23485
234.508972 21.20805
234.530975 16.611879
234.545181 56.246231
234.569321 14.84131
234.628754 27.65806
234.647049 22.209681
234.662033 8.983297
234.682953 18.850309
234.702881 14.29769
234.717102 17.90711
234.75177 29.681231
234.779495 17.492929
234.802124 8.898061
234.840927 42.507851
234.880066 26.796169
234.994324 40.638969
235.019775 14.56822
235.078735 27.15967
235.228897 12.07788
235.294632 8.38313
235.459946 2.501894
235.516586 10.77344
235.599274 10.27227
235.809311 7.225559
235.867905 4.473485
236.005737 7.208818
236.257172 10.98039
236.330521 10.14606
236.359024 6.425698
236.376572 18.680321
236.389862 3.51282
236.577057 3.011029
237.166077 3.166667
237.187515 3.833965
237.203644 4.391523
237.852341 7.022989
237.938202 3.858333
238.072342 2.541667
238.228058 7.689783
238.62558 2.842262
239.534653 3.526786
241.633713 7.3416
242.564743 2.900833
244.128296 20.758551
245.78595 16.814131
249.855576 9.740794
269.196136 10.89851
270.760406 6.780241
271.918823 2.837121
272.132111 11.04694
272.165314 248.907898
272.228668 4.208333
272.316528 18.710079
272.406647 5.022059
272.862183 4.9
272.941132 2.786706
278.689575 3.037809
281.194305 7.586957
282.605988 3.180556
297.192902 28.65579
297.625946 6.203869
301.522278 9.375
313.361145 7.458333
339.04187 4.814815
339.5867 6.557692
341.268402 5.5375
341.448395 3.503205
341.519684 5.333333
341.924225 9.706141
343.201416 794.995789
343.489227 2.0
343.541168 4.65121
343.632416 6.446428
343.650879 9.094838
343.678589 8.626737
343.947144 9.833674
344.24408 5.002083
344.392487 4.666667
353.111023 4.0
364.89032 10.17949
370.029602 3.9675
447.99762 1.408333
464.04303 2.001225
645.827332 2.5
1335.969238 4.355392
1374.9198 39.8675
1384.932617 2.0
1444.677124 7.866936
1456.74585 4.6875
1526.258911 2.265931
1575.832031 5.136111

