>compound Indomethacin M+H
>formula C19H16ClNO4
>parentmass 358.08406212409056
>ionization [M + H]+
>InChI InChI=1S/C19H16ClNO4/c1-11-15(10-18(22)23)16-9-14(25-2)7-8-17(16)21(11)19(24)12-3-5-13(20)6-4-12/h3-9H,10H2,1-2H3,(H,22,23)
>InChIKey CGIGDMFJXJATDK-UHFFFAOYSA-N
>smiles O=C(O)CC=1C=2C=C(OC)C=CC2N(C(=O)C3=CC=C(Cl)C=C3)C1C

>ms2peaks
110.998291 161.331604
129.010971 14.73157
138.279495 11.42102
138.328445 19.595039
138.360397 21.70916
138.43457 11.36193
138.801941 17.568821
138.878281 12.68091
138.972351 62.437649
138.994843 10913.179688
139.045288 50.878979
139.062317 34.907181
139.10495 50.703861
139.147369 17.10577
139.159027 16.34083
139.191559 49.648041
139.2258 23.478861
139.266663 45.473492
139.280441 31.411421
139.386154 29.501419
139.420517 56.778019
139.442749 37.35981
139.493011 18.688299
139.501801 11.66955
139.67363 23.50378
139.997437 114.714401
140.024307 15.71902
174.091599 1498.514038
174.151306 13.35232
174.240555 13.67493
175.096542 12.15504
202.084778 158.307907
279.865845 13.42253
312.0802 110.617699
313.191864 11.24747
317.042053 42.409241
355.834381 17.55201
356.009857 11.96314
356.112213 12.73518
356.134613 18.944309
358.084808 4801.604004
358.172028 56.155449
358.29715 23.666719
358.394104 21.52022
358.441895 20.16386
358.497467 35.600491
358.536987 33.604462
358.638519 51.013729
358.915833 25.07869
358.940399 53.315048
358.99057 27.70833

>ms2peaks
110.200645 28.134439
111.000191 891.34967
129.007919 25.93401
138.332184 47.476269
138.385971 22.71113
138.709442 38.87561
138.994766 22027.849609
139.147568 30.83193
139.176849 64.359543
139.194427 23.630341
139.241989 54.84938
139.259872 23.19845
139.273514 31.824551
139.291412 27.35784
139.394928 41.732361
139.413925 29.6938
139.443039 58.020199
139.457352 47.00724
139.478378 33.65723
139.517029 43.844212
139.591202 35.999699
160.07402 26.40782
174.090424 766.400513
202.085388 48.860748

>ms2peaks
110.397156 20.616369
110.569412 37.66106
110.630692 29.02878
110.999619 9465.18457
111.045303 95.82856
111.101509 31.19739
111.15564 33.21957
111.165932 20.68224
111.199501 20.37607
111.218636 20.968861
111.290123 24.89127
129.00882 65.992737
131.073273 117.303497
137.060074 33.150002
138.216003 18.558689
138.275528 27.782761
138.350464 18.733681
138.402634 25.658119
138.994614 18150.349609
139.126221 38.447788
139.144867 53.499901
139.160934 40.71104
139.17572 36.131359
139.189407 48.917419
139.208954 65.294777
139.229111 33.171509
139.253006 81.393257
139.276276 33.865681
139.353882 31.843929
139.377319 34.97002
139.407471 39.518162
139.455887 37.146568
139.538239 22.121941
139.595825 24.934191
140.848892 22.2292
159.06842 82.576172
160.069702 55.961639
174.092789 217.314499

