>compound Sulfameter M+H
>formula C11H12N4O3S
>parentmass 281.07028769609053
>ionization [M + H]+
>InChI InChI=1S/C11H12N4O3S/c1-18-9-6-13-11(14-7-9)15-19(16,17)10-4-2-8(12)3-5-10/h2-7H,12H2,1H3,(H,13,14,15)
>InChIKey GPTONYMQFTZPKC-UHFFFAOYSA-N
>smiles O=S(=O)(NC1=NC=C(OC)C=N1)C2=CC=C(N)C=C2

>ms2peaks
162.97142 80.429764
240.991104 251.901001
241.365005 21.491739
241.83284 10.14286
319.01944 44.479649
319.248627 51.553951
319.334686 18.66667

>ms2peaks
116.609245 19.5625
162.951752 25.674999
162.973709 415.096191
185.080536 26.760139

>ms2peaks
168.987122 117.878403

