>compound Arenamide A M+H
>formula C36H57N5O7
>parentmass 672.4330756160905
>ionization [M + H]+
>InChI InChI=1S/C36H57N5O7/c1-8-9-10-12-15-24(6)29-20-30(42)37-21-31(43)41-32(23(4)5)35(46)39-27(18-22(2)3)34(45)38-25(7)33(44)40-28(36(47)48-29)19-26-16-13-11-14-17-26/h11,13-14,16-17,22-25,27-29,32H,8-10,12,15,18-21H2,1-7H3,(H,37,42)(H,38,45)(H,39,46)(H,40,44)(H,41,43)
>InChIKey HQEBGENSMXBRMP-UHFFFAOYSA-N
>smiles O=C1OC(CC(O)=NCC(O)=NC(C(O)=NC(C(O)=NC(C(O)=NC1CC2=CC=CC=C2)C)CC(C)C)C(C)C)C(C)CCCCCC

>ms2peaks
100.036179 30.65291
100.081116 19.36046
100.11499 19.068701
101.035965 10.83409
101.070526 20.552851
103.05468 142.745697
103.076599 10.66272
105.071602 75.74572
106.071587 21.486469
107.05674 12.8025
107.086235 67.927979
109.100914 40.379532
110.097786 36.945129
111.083946 35.657791
111.114784 15.55274
112.075966 2450.552002
112.094582 185.898407
112.11161 392.535095
112.147377 39.538639
112.175781 61.74725
112.19915 30.880051
112.409737 10.91346
112.434311 10.96234
112.473137 11.14818
112.489655 11.69432
113.077911 146.490402
113.115456 31.08536
113.34005 13.01231
114.091118 47.119968
117.069794 32.185261
117.103157 51.565948
118.063507 30.160259
120.081253 3751.629883
120.101639 266.628113
120.115196 227.924393
120.135971 85.502388
120.185715 99.448486
120.210533 42.94545
120.428696 16.48509
120.659477 11.34615
120.736481 10.98454
120.891174 10.25811
121.083694 375.958588
121.166618 10.59259
121.188225 11.90865
121.826942 10.47177
122.089325 29.902189
123.090576 13.97649
123.116112 40.580341
124.112328 15.24606
125.097641 26.84796
125.132591 13.09982
126.090775 199.680893
126.139328 20.36051
127.089035 28.006531
127.096359 23.2465
128.106003 35.483311
129.066345 15.94174
129.102234 532.353821
129.126007 40.000568
129.13829 39.02367
129.209351 15.68786
130.103592 35.07708
131.048615 73.588089
131.072662 17.806391
131.087616 14.25723
131.117798 50.640282
132.050247 15.39827
132.081757 193.550201
132.122284 27.376221
133.076584 14.88318
134.088287 12.27214
135.120667 14.16629
137.131714 26.954229
139.085037 31.22332
139.113251 71.824051
140.107681 23.34548
140.14389 238.990005
140.173752 19.33728
140.203979 10.15891
141.106216 18.658159
141.141586 39.01236
142.156006 18.13983
143.119431 84.09655
144.077164 20.468821
146.095612 368.275696
146.132187 22.8813
146.210327 11.47078
147.100723 42.023762
147.123215 12.35694
148.077759 27.2071
149.060394 67.364113
149.076279 14.75061
149.132233 183.644608
149.171051 17.04339
150.059494 10.84627
150.1362 25.46418
151.148621 15.02259
152.140594 36.692509
153.124588 16.46291
154.103333 11.16812
154.11972 15.75467
154.159088 42.041321
155.082565 17.315599
155.117477 40.6581
156.109665 25.096149
157.098648 97.065147
157.133743 725.823303
157.168854 57.406311
157.194244 21.531019
157.218063 15.92363
157.251892 18.428511
158.098114 25.29859
158.137497 89.93206
161.132172 27.18424
164.108398 14.05553
166.086441 2156.218994
166.117508 150.291199
166.178619 36.04948
166.208282 52.48785
166.236343 22.10424
166.333862 11.70118
166.45137 12.3125
166.536545 12.56493
166.679764 12.06806
166.747726 10.03994
167.089966 304.0495
167.111374 41.88876
167.14267 1150.258057
167.167038 93.286011
167.182037 81.957611
167.206985 35.419868
167.265518 29.38843
167.333176 12.79487
167.523544 10.8468
168.090561 21.788389
168.14653 181.141296
168.173447 74.414864
168.225677 10.91608
168.26741 14.44161
169.103745 11.0783
169.138992 24.823721
169.171234 57.82592
170.171478 16.61659
171.116287 30.47139
172.117767 15.85577
173.109421 10.53441
174.128357 203.979706
174.16922 15.35481
175.13295 59.39402
175.180161 10.87286
177.10202 39.794209
178.085175 64.082222
178.156876 28.736641
179.083725 18.59409
179.113556 12.00641
179.161041 14.24001
180.174744 30.930361
182.115707 11.50735
183.110428 20.26848
184.075058 16.546221
184.170471 197.470993
184.205246 15.1417
185.128281 539.829712
185.165268 1056.738037
185.207306 76.617104
185.235931 36.415131
185.25473 29.85227
185.293991 28.06814
185.322479 17.28894
185.400467 12.25218
186.082138 10.49775
186.133057 80.325562
186.167023 114.1381
186.193481 22.452339
187.137512 11.16583
187.173721 16.00177
188.143753 171.876907
188.188187 11.1665
189.14447 16.388281
191.118347 227.939499
191.153473 26.510019
192.101257 226.122498
192.155807 15.86782
193.108246 25.400551
195.150345 15.97368
196.169891 1717.849976
196.260422 28.70385
196.302765 42.338902
196.337585 16.28385
196.465408 11.41551
196.493622 10.98343
197.121735 13.64365
197.172546 279.355804
197.202759 32.12801
197.250061 11.70006
197.304398 14.09402
198.165833 21.376921
199.109024 12.03437
202.18042 10.10108
203.134369 42.4524
203.160019 11.41608
205.093536 15.94351
206.151566 11.31764
207.148819 40.212841
207.176392 13.34048
208.16806 13.61951
210.181717 12.8487
211.179855 130.284195
211.204697 19.73184
212.183014 21.642929
213.117538 13.87544
213.159897 643.317078
213.208511 36.533451
213.251816 15.86524
213.297577 17.05983
214.169754 155.172302
214.21402 23.847031
215.178772 29.389469
219.115738 16.7269
220.133316 232.123795
221.138474 33.84708
221.167038 15.60652
223.110199 21.202539
223.135437 12.69231
223.177399 30.995251
224.164581 1239.630005
224.305038 33.86087
224.33931 13.76923
224.417114 11.31225
225.167114 270.138794
225.197342 31.54546
225.307449 12.68594
226.168243 20.60347
226.190399 13.88252
227.171036 14.22462
231.106049 10.90498
231.156097 29.618349
232.108368 11.68787
233.163544 11.72417
234.149185 132.9832
235.156235 38.587189
237.123001 736.558289
237.269608 17.578951
238.126541 144.9487
238.173859 16.783661
239.131424 26.17112
239.173447 76.669456
239.206985 12.83898
240.178894 24.049629
241.189575 109.582001
241.240646 15.69527
242.176453 721.714783
242.250824 26.57847
242.325562 19.319139
243.182297 110.670502
243.254456 10.75883
245.164017 91.349182
245.19397 17.244881
246.156403 23.960039
246.168274 19.61067
247.109985 10.31596
248.100464 12.98155
249.123291 16.60969
249.227631 12.32163
252.173019 12.6201
253.224365 10.68345
254.227966 13.55177
259.180176 69.991707
260.182953 23.119659
265.152893 25.998301
265.181488 10.79609
267.172363 23.76087
267.206543 50.570011
270.179077 69.838341
271.181976 20.630079
273.164093 23.884041
274.154755 13.44345
276.146729 23.482571
277.228912 30.429279
278.238007 11.31816
279.171631 34.122589
280.200775 13.39744
284.197815 163.184402
284.246552 13.48616
285.200806 37.44173
287.175934 30.287479
287.2146 19.49391
288.16748 13.85714
288.205841 26.159069
289.151917 13.63907
291.166901 85.227997
292.175476 14.32794
293.164459 11.57617
295.205292 53.907391
295.2388 1108.147949
295.323212 32.190311
295.401367 27.890329
296.160645 15.29921
296.201752 26.929501
296.241699 315.426086
296.285675 32.736462
296.40802 12.89483
297.081238 11.53974
297.189789 10.32967
297.246887 32.762089
297.841492 12.23269
302.216766 18.965031
304.165833 11.30811
304.193176 12.89484
305.187958 166.203201
306.191162 40.38636
309.256165 25.70962
310.25827 19.64992
313.221313 41.424679
313.247681 35.66877
313.272797 18.89546
314.224304 13.63372
323.233978 2307.334961
323.403076 50.585049
323.444702 21.66614
323.505524 17.39423
323.805328 11.91498
324.066681 11.71078
324.237274 668.709229
324.405975 19.949961
324.621521 10.16483
324.668243 10.11699
325.111542 10.07692
325.243317 70.487183
331.183594 10.68047
332.19696 22.36058
336.194519 15.27174
337.194244 11.03431
337.249969 42.770432
338.249939 36.053509
340.258423 24.432461
341.245697 800.304993
341.284424 75.675339
341.421814 19.146179
341.467377 12.44446
341.703766 15.32308
341.764496 10.86539
342.247559 233.948395
342.302307 27.00597
343.251282 62.645592
343.2995 10.48077
349.246002 19.56015
350.208191 114.555603
350.251007 24.371929
350.289398 15.13884
351.211914 41.82933
355.25946 73.35881
356.261078 23.702169
360.19931 14.49608
360.216949 11.65117
375.249268 10.42885
378.238068 11.02966
389.24292 40.62883
390.249847 18.212191
390.311859 53.290611
391.304382 13.5872
394.269928 31.008249
395.277771 14.6944
403.279114 18.021561
404.262085 26.335661
404.304199 15.775
405.249817 13.33846
406.270966 52.57933
407.273315 14.88238
408.324615 124.215302
409.29303 12.53861
409.326233 38.200951
412.284698 84.235672
413.282135 18.6924
414.288086 11.47326
415.263245 38.570271
416.260193 18.5392
418.238312 12.02216
418.31012 15.22267
426.301056 68.469414
426.330872 36.366879
427.2948 11.60696
427.322327 12.28889
431.262787 15.16538
432.281281 17.72308
433.275787 20.24062
436.318634 1082.947998
436.420319 34.974361
436.51239 25.157049
436.565674 12.17674
436.629486 10.40271
436.67453 13.64145
436.822174 11.00962
436.891022 11.73558
436.913757 10.63385
437.088928 13.53208
437.32074 404.758514
437.449524 17.26701
437.517975 19.456039
437.692139 12.47405
438.323059 71.568581
438.379639 24.12623
438.420013 11.8571
443.287201 12.3986
449.276062 214.7686
450.276672 58.528851
451.282776 10.90719
454.328247 488.632507
454.536713 10.07788
454.738403 12.33715
455.329224 181.941895
455.438629 10.27791
456.33255 32.126579
457.317505 10.15401
460.284973 121.974403
460.321259 72.62587
460.413239 11.08558
461.282043 33.874142
461.321564 45.378231
461.352173 18.997919
461.389709 10.5997
462.287811 13.77019
462.329376 11.41967
470.30719 15.28016
471.255859 10.18769
473.670319 11.27782
480.356445 10.33274
486.341248 19.92926
487.340973 16.6833
488.295807 29.751209
489.284271 11.84682
489.318512 20.77564
489.344482 15.01923
490.310394 10.23558
497.368561 20.245781
497.392883 10.89554
498.366486 10.32542
500.342529 13.18462
501.342316 14.06731
507.357086 415.3992
507.415009 42.697121
507.473694 13.56271
508.357147 132.316498
508.426727 15.47866
509.353088 31.79385
514.317322 37.917858
514.342712 23.68269
515.319336 21.080391
515.349854 13.45614
516.342163 10.32486
525.366272 359.808014
525.52301 11.24692
526.370422 141.152298
526.444397 17.69471
527.378113 37.311459
528.345825 51.177929
528.398071 11.30769
529.345703 42.040821
529.389038 11.54702
530.33197 12.07389
531.356323 75.607719
532.361511 33.84808
542.345703 12.93681
555.357788 13.16327
556.377136 11.26505
559.350586 69.857193
560.35614 37.873291
561.3349 11.98137
561.359436 14.73969
570.32489 11.29359
573.380798 34.48209
574.37738 23.274719
574.4104 12.65505
575.364075 10.45734
583.386902 33.194271
584.400146 10.32359
599.421021 27.09322
600.41925 30.876961
601.393311 12.2
627.421082 80.63237
628.415894 48.223549
629.418701 22.692659
644.440247 144.656097
644.51532 18.77779
645.438965 58.540791
646.444092 21.53846
654.4198 79.750122
655.429016 24.003151
656.438782 21.54249
672.438232 368.56189
673.438232 211.549896
673.58728 13.01049
673.871521 10.25236
674.442505 40.02515
674.53125 11.12346
675.386963 10.18842
675.465332 13.74573
675.556213 15.15401
676.369629 10.94823

