>compound Methylprednisolone M+H
>formula C22H30O5
>parentmass 375.2166005120905
>ionization [M + H]+
>InChI InChI=1S/C22H30O5/c1-12-8-14-15-5-7-22(27,18(26)11-23)21(15,3)10-17(25)19(14)20(2)6-4-13(24)9-16(12)20/h4,6,9,12,14-15,17,19,23,25,27H,5,7-8,10-11H2,1-3H3
>InChIKey VHRSUDSXCMQTMA-UHFFFAOYSA-N
>smiles O=C1C=CC2(C(=C1)C(C)CC3C4CCC(O)(C(=O)CO)C4(C)CC(O)C32)C

>ms2peaks
101.057762 100.486603
102.68737 9.509804
103.956833 3.66886
104.041199 39.200489
107.0802 31.03718
107.086525 111.960602
107.134071 2.333333
107.175064 31.117649
107.285545 9.429762
107.637833 12.48214
108.717064 18.05192
109.064934 34.029629
109.100334 286.183685
109.127625 5.016667
109.295616 12.32018
111.044403 93.083183
111.082695 13.85256
111.336998 7.969086
111.436211 6.111111
112.442886 8.708333
115.073914 149.386093
115.280106 14.61742
117.049522 39.57304
117.069679 21.55971
117.518005 3.857143
119.08696 152.559006
119.183907 4.720238
120.276329 6.673611
120.477768 4.711957
121.064781 351.487
121.101387 128.687607
121.426079 9.827381
122.103386 47.539989
123.077454 85.310059
123.215752 10.36111
123.354805 11.76179
124.388611 5.702587
125.058121 394.087494
125.096153 48.129269
125.115311 4.680556
127.07576 29.86657
127.649498 8.337302
128.059616 43.060902
130.359039 4.782407
131.083725 153.148804
132.354385 3.926282
133.09906 168.756805
133.830597 12.00915
134.359558 17.64583
134.378494 6.339743
134.477219 18.695511
134.532471 3.680556
134.701309 19.193581
135.079956 2510.891113
135.145691 3.094697
135.183182 12.23184
135.23056 7.868333
135.252701 3.777778
135.332535 19.959471
135.526245 8.377451
135.536377 11.95833
135.554443 19.77183
135.646683 14.0819
135.806 5.573412
135.903152 8.337302
135.931793 19.29487
137.05809 20.27
138.69606 15.18947
139.074722 193.528793
139.129929 2.027778
139.220444 22.67244
139.38501 14.8648
140.503998 9.920635
141.066223 85.779266
141.103821 3.266667
143.087189 145.381195
145.098923 342.850403
145.147919 3.413462
145.264069 3.041667
145.37851 9.667592
146.072006 80.06955
146.306107 6.333333
146.900925 2.333333
147.0802 649.076416
147.119339 51.959999
147.213104 5.444445
147.226379 13.67738
147.254654 5.333333
147.453812 7.719017
147.5383 11.00962
147.749222 5.339285
147.784103 6.089285
148.414322 2.354167
149.037827 6.669872
149.095718 708.619324
149.131424 5.013889
149.148422 3.055556
151.077423 74.805603
151.284576 3.736111
151.664566 2.482143
153.090469 60.215
155.069305 50.78149
155.0858 27.55784
155.194839 4.677083
156.71933 5.598684
157.086853 47.133671
157.101334 68.140427
157.460999 11.01754
157.557251 13.43841
157.703369 4.958333
158.07164 42.395111
158.479462 3.823718
158.685684 5.678764
159.080261 240.952301
160.131622 19.58333
160.188004 8.019608
160.267288 28.27166
160.31131 14.15369
160.492264 3.857143
160.60675 4.531863
160.889008 11.66912
160.951111 4.340278
161.095764 4071.314941
161.14827 27.439251
161.158142 5.705246
161.18428 77.979439
161.219971 4.061275
161.237274 9.506945
161.334839 19.66667
161.365417 44.36541
161.374619 7.05
161.493958 2.333333
161.513412 5.973485
161.52327 9.080882
161.570358 16.529091
161.710449 3.490385
161.737198 12.23611
161.777725 1.777778
161.80658 3.640152
162.011627 7.67803
162.456055 12.69338
162.632156 8.369253
162.786453 6.666667
162.867767 6.481482
163.075653 56.547871
163.109024 140.605103
164.04834 6.378623
164.144592 6.453432
164.424988 2.666667
165.090576 481.395599
165.148453 6.03858
165.350662 17.037359
165.556427 17.9401
166.070709 14.32527
166.330856 6.201666
167.105347 33.485691
167.303986 5.5
167.503922 7.435606
168.225098 3.342592
169.083221 29.80167
170.706894 20.029631
171.080246 224.364899
171.116608 168.776306
171.494751 20.07843
173.096237 413.510803
173.12999 28.920731
173.582428 3.080128
173.655762 12.41336
175.071426 116.497299
175.110672 766.627625
175.160416 2.875
175.340485 20.8985
175.407257 19.013889
175.508209 12.075
175.646637 17.680559
175.669846 9.672619
176.592941 15.33667
176.847702 10.89851
177.090927 343.159393
177.120956 22.08824
177.131622 43.593651
177.185196 5.025641
177.268555 22.421181
177.465149 20.27586
178.841263 7.865196
179.105194 152.217102
179.767776 6.747549
180.049225 12.66945
182.621109 11.60333
183.102631 256.788086
183.669922 4.630952
183.970123 13.61364
184.265549 10.71316
184.383652 22.4303
184.661865 12.95076
185.096207 2101.395996
185.131516 32.801971
185.154007 13.27417
185.173355 2.0
185.192352 2.761364
185.348572 17.408581
185.38002 8.493421
185.424362 13.27
185.468552 15.88032
185.533508 5.666667
185.970428 18.73563
186.02739 8.223765
186.050186 3.666667
186.059967 7.347222
186.154602 5.682971
186.287521 9.411765
186.327896 11.01136
186.391998 4.711957
187.074295 36.32328
187.111252 1388.787964
187.167786 14.45949
187.188309 2.333333
187.205063 6.334677
187.257462 15.72202
187.304977 5.416667
187.335159 11.29412
187.366623 2.386905
187.433609 10.34568
187.601151 16.65476
187.662003 14.68056
187.686127 5.666667
187.896545 4.963235
188.015228 10.3869
188.349594 24.28002
188.669937 11.57143
189.091049 235.488297
189.129623 100.566299
189.262115 12.07843
189.530319 13.34848
191.107773 75.968674
191.388336 5.69697
193.125488 14.4518
195.116104 58.68531
195.306564 2.041667
195.695709 9.04344
197.092194 89.148697
197.559189 6.358974
197.632538 10.11204
198.108154 12.15
198.494583 8.672619
199.110504 237.823395
199.249756 4.022059
200.945099 6.291667
201.087708 15.17659
201.12738 218.988205
201.332382 5.013889
201.432022 16.96681
202.370407 8.0625
203.110291 58.28334
204.10228 24.043859
205.1203 67.934067
207.870865 5.391026
207.951782 11.3344
209.09137 68.082947
209.13588 44.79715
209.22229 8.714148
209.489075 7.407407
209.87616 7.037879
210.003113 18.16667
211.111603 521.644775
211.173828 5.598684
211.278427 25.811399
211.421631 8.454545
211.882629 10.6
211.89798 14.89655
211.949661 5.041667
213.089508 10.10727
213.127075 671.892517
213.181213 3.4
213.193634 4.125
213.221573 3.686404
213.283585 4.297619
213.315063 10.83866
213.46019 33.969231
215.147278 23.543859
215.232285 16.922871
217.114929 93.454491
219.097778 64.578377
219.134384 20.79615
221.09407 74.172218
222.09552 66.37458
223.109406 124.8088
223.133713 21.185261
223.310791 46.775539
223.460815 14.06888
223.788559 13.03712
223.840607 5.684524
223.907425 7.019737
224.397873 13.55107
225.125534 432.555298
225.162811 44.26437
225.383987 16.12002
225.640198 7.314103
225.869873 2.333333
227.10202 155.515793
227.141846 337.938293
227.2435 6.533333
227.304749 2.375
229.123917 72.463753
229.158203 108.591003
229.22319 2.678571
231.10347 8.966954
231.137344 486.877899
231.176224 3.345238
231.255493 8.469594
231.493622 4.025
231.688431 19.9867
231.784882 4.481482
232.351898 3.333333
232.378586 6.061274
233.268906 6.963235
235.034531 8.881667
235.109634 137.9888
235.151077 37.72208
235.590836 3.520833
235.757675 6.481482
235.838287 7.429762
235.916672 7.041667
237.085648 43.532612
237.126053 975.839172
237.168884 3.0
237.225815 8.015
237.796432 11.04167
238.023117 17.334299
238.071732 22.65399
238.184113 3.347222
238.747513 8.885869
238.764542 8.49359
239.141403 579.827515
239.350632 5.357143
239.44751 4.041667
239.587494 7.728535
241.118561 65.874138
241.140839 4.017857
241.1577 88.52594
242.152481 38.34256
242.184601 2.003788
243.138382 27.669979
245.112656 70.808441
245.188812 11.81667
245.766098 4.094697
247.558807 23.218019
248.231155 6.583333
248.533081 14.53289
248.85997 14.3869
249.12706 261.874115
249.158981 26.0947
249.253998 11.02083
249.526596 8.357142
249.595795 2.678571
249.680283 9.677381
249.782196 2.916667
249.895126 16.08003
250.06543 5.335145
250.335098 11.36232
251.109634 6.166667
251.141174 1294.530029
251.216522 3.016667
251.376495 10.68314
251.528519 7.723485
251.56958 23.75174
251.679916 5.668104
251.713028 8.000886
251.751755 10.0
251.801071 12.2807
252.221069 7.057692
252.244156 13.60556
252.420013 3.666667
253.118851 62.571819
253.157806 2931.583008
253.222031 14.38461
253.301392 23.55526
253.321747 8.370833
253.349426 2.337963
253.438034 10.69482
253.504501 3.708333
253.524185 12.96004
253.583466 44.90625
253.633987 16.62738
253.660126 20.589279
253.676239 2.00463
253.861328 47.237099
253.887375 8.962963
253.953903 22.36417
253.984375 5.296568
254.065262 3.013889
254.810989 9.049603
254.935577 6.337963
255.139694 44.929031
255.174713 488.2034
255.319 10.34722
255.346817 15.08013
255.379669 14.34981
255.530273 13.35459
255.681229 3.053571
255.936111 13.08333
256.347412 12.32328
256.933594 8.166667
257.26828 20.35627
259.104492 56.521999
260.153442 29.11846
261.126495 174.716095
261.194733 5.013889
261.261871 19.42178
261.577179 6.344048
261.599579 4.35307
261.661957 11.10526
261.684174 3.802778
261.729126 17.023439
261.945099 3.42803
262.641693 2.0
262.844727 7.668859
263.141144 330.076294
263.255859 3.185606
263.28476 6.777778
263.522461 5.055556
263.663147 33.497051
264.510559 4.066667
265.117462 22.049601
265.155579 255.097504
265.252869 5.088768
265.400146 19.01111
265.434235 10.00144
265.464508 1.675
265.732819 20.866011
265.950256 5.334677
266.114258 17.176069
267.136353 665.95343
267.177063 32.667099
267.231384 2.016667
267.262421 19.000681
267.370209 11.69231
267.63385 9.053572
267.706512 3.791667
268.287109 6.335
268.819031 3.266667
269.155884 93.091797
269.194305 67.748253
271.163971 40.888279
272.267731 8.122549
273.123901 32.35849
273.773773 3.677083
273.876404 10.68056
274.125824 37.119228
275.138672 84.450638
275.174622 53.107361
275.190643 10.18939
275.210938 1.675
275.451416 7.130208
275.658386 3.518939
275.803223 23.558559
275.900299 10.56481
276.462738 5.041667
276.639191 5.416667
276.900116 6.721154
276.971588 8.430555
277.158539 1009.275024
277.225555 2.075
277.287048 15.05357
277.413666 7.408333
277.504913 2.003788
277.63089 7.481482
277.685333 4.490385
277.805634 3.185606
277.893372 12.04167
278.002258 6.125
278.247223 14.5
278.322662 4.734848
278.356323 2.347222
278.508423 5.015
278.710083 9.518163
278.845245 4.684524
279.137451 648.588623
279.174622 3111.035889
279.227356 16.054489
279.246063 20.322001
279.263763 4.337121
279.316376 8.721774
279.333435 5.734848
279.385803 5.160714
279.426483 16.40333
279.50528 39.689571
279.576782 28.651819
279.618622 31.02656
279.67038 21.96287
279.771332 5.708333
279.816254 8.352941
279.876373 7.653986
279.990845 9.745155
280.255585 5.020455
280.559692 13.24621
280.606628 8.833333
280.66568 9.714286
280.911804 5.265351
281.189545 929.654724
281.261322 5.351191
281.51416 24.6441
281.634369 11.2
281.672791 13.88214
281.722412 4.668334
281.774963 6.366667
281.862671 24.464649
281.944305 3.440476
282.70343 9.219203
283.164642 47.208591
284.204102 24.707069
285.163055 28.19729
285.360199 11.04167
286.271912 10.36687
288.154205 86.916656
289.672913 7.410257
289.962891 23.933769
290.187622 9.881579
290.816162 10.34772
291.175232 609.739929
291.362183 14.85714
291.412903 24.26722
291.528503 5.415
291.628845 20.151239
291.743134 3.185606
291.836945 6.541667
292.149567 6.958333
293.153137 1168.197021
293.189728 1329.178955
293.253632 8.001666
293.284851 17.7631
293.313202 9.753205
293.329468 4.041667
293.366852 10.67432
293.44989 37.933331
293.497955 12.34568
293.530212 39.411282
293.578156 28.598591
293.651917 16.748329
293.69104 17.33889
293.730774 22.408581
293.824738 20.60606
293.891418 7.00463
293.968994 3.003205
294.118683 11.75076
294.288727 12.85714
294.321472 31.754789
294.357635 7.714285
294.643463 17.319441
294.995789 2.0
295.169647 328.371185
295.228882 5.001984
295.355988 5.414216
295.479828 12.3952
295.647461 14.74561
295.874786 5.088768
297.15033 410.73291
297.184601 842.093689
297.254303 8.457307
297.288879 3.094697
297.390625 17.746691
297.459625 23.06909
297.483154 6.136111
297.519897 26.48753
297.564697 11.42803
297.772736 7.297619
297.792786 7.782407
297.828827 18.815331
298.352386 24.656361
298.718018 13.25494
299.200958 238.166702
299.285522 4.013889
300.391907 6.333333
301.248718 3.047619
301.394226 20.73374
301.450745 18.804911
301.762177 7.679598
301.810059 11.0303
302.155548 3.857143
302.472656 2.625
302.633453 15.56522
303.17392 2147.031982
303.249573 6.008333
303.26889 16.373369
303.328522 12.4221
303.38739 18.72938
303.450684 36.86446
303.51123 5.721491
303.602112 5.002193
303.642212 10.49342
303.681702 9.556818
303.792847 35.679489
303.814331 5.741667
304.085083 4.306818
304.365051 2.683333
305.332153 5.678764
305.520691 2.761364
306.153809 19.69231
306.196106 5.774123
307.159912 76.626602
309.184387 730.024719
309.248444 11.60795
309.309387 10.29643
309.345184 13.46094
309.363556 7.678764
309.425354 15.3649
309.46756 2.0
309.492065 1.671296
309.510651 21.88217
309.742828 16.086809
310.367065 7.891666
310.800079 4.25
311.161652 208.929596
311.198853 515.625183
311.379944 6.095238
311.40155 6.483334
311.60611 35.77335
311.895508 14.02222
312.12326 14.76025
312.744751 7.358334
313.178528 104.576599
313.452179 6.025641
313.469513 3.926282
313.940369 6.818182
314.475433 6.030303
315.112701 18.83226
315.157074 380.312408
315.216187 4.025
315.333435 14.33477
315.420044 3.047619
316.281128 7.5625
316.415436 4.760417
317.821472 9.111112
319.03241 15.21185
319.11319 13.75772
319.156677 6.449713
319.195496 20.23077
319.270569 15.19298
319.299774 4.844298
319.339569 8.73136
319.402344 6.983333
319.511047 8.000886
319.7948 17.736441
319.965149 4.349638
320.052155 25.01755
320.430817 7.5
320.600159 11.69823
321.185211 6247.62207
321.268951 76.679863
321.312561 13.74359
321.353912 10.0336
321.375793 32.138329
321.400055 15.15188
321.444733 12.70536
321.469727 13.25
321.502808 41.598721
321.528992 29.45059
321.541504 11.41177
321.559906 16.25
321.5896 14.67708
321.651093 21.12879
321.699738 57.696579
321.732483 5.306818
321.822571 27.75
321.907745 40.412498
321.928345 5.813406
321.947327 29.52841
322.091187 13.34722
322.135101 57.605518
322.290497 2.680556
322.753174 21.59868
322.807129 2.041667
322.884094 14.36937
323.26886 19.049601
323.44693 3.760417
323.864197 7.613636
327.192932 555.719421
327.281067 22.218229
327.419525 4.382936
328.213165 15.33333
329.209167 79.44651
329.46228 9.513888
329.910736 8.369048
329.961334 13.29493
335.022705 12.10256
336.968353 15.03423
337.008179 4.555556
337.051453 5.466667
337.083801 28.023279
337.140778 11.21333
337.188324 16.355379
337.239685 15.25521
337.261444 7.306159
337.329895 26.64583
337.357422 25.58567
337.381805 31.78754
337.556122 10.04412
337.722626 16.026711
338.125214 7.130208
338.482666 11.08854
338.560547 5.208333
338.624359 8.166667
338.695007 13.72003
338.812378 33.450809
339.080811 63.865841
339.129303 108.182503
339.195404 11891.639648
339.280365 65.864021
339.354767 10.00245
339.395172 100.242302
339.437714 8.888398
339.465698 47.502491
339.497131 108.477402
339.540619 104.970299
339.567108 64.553787
339.64212 79.761436
339.671539 29.23867
339.700714 8.681818
339.74054 37.55999
339.797272 15.00758
339.816376 41.352772
339.843964 33.464119
339.874878 8.852012
339.953247 37.195621
340.003601 6.741667
340.021942 9.284091
340.322998 6.880952
340.379669 19.51894
340.752411 4.094697
340.990784 4.120098
341.112793 6.00641
341.312042 14.9679
341.427734 15.59375
341.556305 1.666667
341.955048 3.669444
343.255768 7.716667
343.668396 13.6674
354.772003 7.007576
354.818207 4.35
354.905914 35.313351
354.928589 11.0
354.983887 32.431561
355.026642 66.989349
355.092255 10.45455
355.116577 17.466669
355.154297 84.600853
355.193878 45.430309
355.225739 11.4
355.260529 44.394669
355.299286 27.71841
355.321991 72.643181
355.348877 19.34783
355.387115 3.185606
355.458435 7.190217
355.601685 25.384069
355.867462 6.98077
355.959686 18.406401
356.177887 17.72024
356.438232 8.008333
356.760254 6.880952
356.938599 17.87756
356.964996 16.158331
356.990509 14.89655
357.063904 2.14881
357.091553 14.40833
357.129974 43.554131
357.159241 138.284103
357.20575 22698.560547
357.296844 72.042717
357.337402 40.554119
357.377289 59.11462
357.451355 80.569473
357.474396 47.45454
357.521881 120.447197
357.548035 40.437881
357.593262 64.85862
357.636444 114.493103
357.699493 50.59248
357.753113 10.02671
357.795898 47.370441
357.818909 3.666667
357.890472 38.398651
357.912872 16.04545
357.973206 82.560867
357.995483 26.829081
358.044556 53.1203
358.27832 56.245361
358.321259 57.211281
358.427277 42.971958
358.566467 9.891666
358.734222 3.347222
358.753967 11.6402
359.011017 12.67029
359.08313 26.29818
359.380249 7.33477
359.406586 10.62703
359.485779 14.78342
359.843597 7.083333
360.219574 15.8293
361.153564 7.382936
361.500397 5.480072
361.923828 4.002451
362.583984 6.002778
362.787323 9.8
363.209076 12.66848
363.608429 20.589399
372.626526 3.375
372.746582 6.741667
372.866241 11.45833
372.904755 28.017111
372.944519 24.59528
373.047394 9.824561
373.136139 8.595239
373.181793 3.342592
373.296051 7.700269
373.383545 11.77174
373.468079 2.678571
373.517853 17.53299
373.773743 7.958333
373.840668 7.344048
374.20401 12.16447
375.216492 4070.912109
375.302094 38.057209
375.362183 10.16263
375.396912 22.75058
375.478027 48.310909
375.537048 47.2882
375.56424 10.125
375.612823 25.445351
375.638794 16.705879
375.705994 33.37571
375.753876 22.45833
375.847839 3.34375
375.868134 29.16226
375.949005 20.07412
376.329529 6.25926
376.569824 9.33415
376.731873 14.64844
376.826508 16.341311
377.164185 23.17421
378.054382 3.111111
392.650146 7.677083
797.47113 4.0
1603.006226 6.805555

>ms2peaks
101.059013 237.344696
101.128067 12.21894
101.241089 6.002778
101.415146 7.162634
102.941322 3.686404
103.037338 39.28994
104.059631 70.070312
105.070251 250.512802
106.364876 3.686404
106.633217 4.852273
106.803047 10.0
106.840599 4.120098
107.047005 11.0819
107.085388 798.778625
107.13047 4.694444
107.166481 2.670455
107.469208 11.54667
108.572655 30.31296
109.066086 153.305695
109.101212 746.016602
109.143303 14.14983
109.880943 5.041667
110.593727 1.777778
111.042625 98.168404
111.080574 144.009003
111.730209 9.280702
112.463585 7.306159
113.058182 30.799021
115.034607 13.28656
115.040672 55.59837
115.053246 102.663399
115.074959 33.598679
117.054016 175.507904
117.066132 115.900703
117.098595 4.483333
119.08522 256.406097
119.122215 2.669872
119.171577 7.0
119.255165 30.409719
119.391975 8.601191
119.437584 3.025
120.055023 8.041667
120.090874 88.210213
120.385841 7.494048
120.676414 19.01701
121.064545 1662.630981
121.101418 211.178894
121.111992 8.375
121.18515 13.05833
121.208191 25.33737
121.223763 22.32065
121.265137 4.75
121.285767 16.5977
121.422852 26.403049
121.441956 8.350877
121.453491 13.04012
122.410606 15.22685
123.045357 196.174103
123.079536 407.690491
123.115623 76.333641
123.219612 7.763095
123.408905 5.041667
124.477867 4.083333
124.629295 27.23934
124.843719 26.324329
125.059662 255.653793
125.097504 88.467468
125.212578 7.049603
125.380623 35.54808
125.867393 4.028846
126.539581 7.757883
127.077133 33.927078
128.220062 6.682971
129.06926 130.641998
129.08551 39.835651
129.119522 2.386905
130.873032 7.605556
131.04715 70.373039
131.085709 535.177002
131.331253 9.429762
131.494568 5.673611
133.060867 15.62888
133.068497 76.65834
133.099457 602.51123
133.14888 11.735
133.176025 14.44792
133.267365 10.38294
133.291489 11.56048
133.332016 11.34295
133.364151 8.380815
134.217224 3.695513
134.350189 9.472222
134.360611 32.159458
134.385284 6.826754
134.406723 6.378623
134.510925 23.84815
134.527756 21.177231
134.539856 4.363636
134.596085 8.65661
134.632675 5.76923
134.657883 19.555559
134.689133 1.666667
134.902557 16.907049
135.044922 66.669617
135.080353 5956.924805
135.129501 12.54167
135.145493 33.440479
135.161713 14.86111
135.174545 17.667431
135.194214 13.07843
135.201447 22.252529
135.226517 16.33889
135.248322 16.36488
135.255417 8.45
135.280457 11.30029
135.288834 8.518939
135.307632 5.001812
135.315735 8.400001
135.340012 8.802928
135.380981 10.2608
135.406799 9.208333
135.429352 36.163422
135.445267 11.01136
135.469574 18.43803
135.49791 9.960366
135.563828 2.893518
135.589066 24.970449
135.63562 8.704166
136.110352 19.51111
136.175797 7.633333
136.239975 3.703704
136.357758 3.736111
136.740021 3.041667
136.933197 18.29167
137.059036 89.047493
137.330399 3.0
137.363464 8.41523
137.758804 11.03947
138.560272 6.081667
138.704712 8.416667
138.720016 4.349638
139.074539 391.759888
139.360229 23.25362
139.635254 15.44676
140.297928 11.04688
142.078873 19.097219
142.876968 25.00798
143.084442 301.517212
143.126083 13.3869
143.23465 18.36585
143.253387 8.125
143.334579 12.27
143.439194 25.36939
144.473755 5.09375
145.06308 531.168518
145.100952 483.251099
145.13269 23.16667
145.152069 6.826923
145.181549 4.166667
145.248444 26.008129
145.353348 18.02347
145.405945 14.13225
145.422653 19.58824
145.458725 11.66667
145.473022 2.111111
145.621948 11.04545
145.655563 21.09145
145.706207 6.673611
145.777283 9.477381
146.218643 16.473261
146.736237 4.773809
147.079575 1183.76001
147.115982 168.381607
147.141418 2.708333
147.173019 9.922933
147.185989 8.300439
147.250671 12.34405
147.310211 11.02315
147.343964 35.669769
147.382492 4.59375
147.436661 3.354167
147.56366 7.102273
147.597717 7.347222
147.671448 8.416667
148.088715 59.885189
148.331055 39.05378
149.095795 1014.987976
149.148148 11.8524
149.258423 14.7002
149.288651 7.339285
150.35321 6.013889
151.072098 112.971298
151.110931 120.857697
151.169785 1.680555
151.186584 17.72003
151.289536 1.777778
151.53717 6.880952
151.725632 7.6875
152.059998 43.3447
153.091431 119.634903
153.177475 2.375
153.35466 4.963235
153.496292 15.67465
154.07402 51.451851
154.134827 4.734848
155.07019 78.494049
155.083817 16.613741
155.17366 11.16026
155.423889 4.041667
155.715317 2.005952
156.624069 13.73333
156.658875 13.75321
157.100449 224.071503
157.137985 4.773809
157.273346 3.727941
157.452271 7.416667
158.073502 95.20533
158.22998 8.146739
158.36525 1.777778
158.379074 7.350877
158.713547 6.037281
159.079224 1046.543945
159.117493 170.565399
159.142151 6.339285
159.184341 22.40933
159.317688 3.560185
159.339325 9.713542
159.412476 1.6875
159.432587 20.32658
159.450958 27.776899
159.568283 4.341667
160.019073 5.054487
160.136292 10.45581
160.157303 14.73409
160.196808 3.677083
160.253418 4.120098
160.271667 3.375
160.289291 6.710784
160.31572 2.016667
160.333389 19.93804
160.346542 7.388514
160.364166 5.672222
160.399399 71.181236
160.465607 7.969086
160.523346 7.779321
160.548538 3.680556
160.619766 18.063129
160.647125 13.41682
160.778549 9.357558
160.862381 6.671297
160.932571 12.47798
161.045456 33.570339
161.056747 24.44363
161.095932 8850.797852
161.133072 154.8349
161.14975 67.494278
161.184631 11.71264
161.215622 3.440476
161.22464 32.949581
161.246765 7.345238
161.25531 15.66927
161.272675 16.25
161.28624 28.43438
161.304794 11.81855
161.353256 37.75169
161.41806 19.66247
161.452805 31.002649
161.471664 19.77844
161.480698 7.698232
161.511642 13.0
161.533752 8.816667
161.54216 46.107521
161.563171 14.61374
161.582397 15.17452
161.677826 8.049603
161.695633 11.12037
161.710663 3.047619
161.737198 1.672619
161.807816 8.35307
161.864838 20.259609
162.252579 5.680555
162.285095 25.5376
162.330612 3.727941
162.423706 8.009147
162.675201 16.68889
162.751968 9.960366
162.822693 4.833333
163.069016 37.706902
163.145599 12.96323
163.404663 5.19853
164.322968 3.185606
164.639526 26.844419
164.746445 4.166667
164.878952 3.226852
164.91655 12.03333
165.089798 969.930298
165.326584 23.52153
165.439178 3.686404
165.501831 5.742284
165.546814 23.45509
165.560135 14.01961
165.755005 12.38294
167.106079 49.542858
167.135727 5.0
167.49942 4.0
167.53093 8.668103
168.166138 2.386905
168.81218 4.44079
169.083725 38.410629
169.093704 87.099152
169.115891 51.59568
169.242523 2.337121
170.071045 18.41667
170.183197 11.48167
170.384277 15.33412
171.079285 330.699005
171.11644 356.952087
171.170792 1.6875
171.182175 4.75
171.790863 11.0496
172.02298 21.69381
172.045807 6.520061
172.126785 36.80278
172.178192 10.00181
172.241287 6.833333
172.328568 14.80421
172.365326 13.43254
172.383636 8.372808
172.736069 19.813061
173.094772 1505.109985
173.131012 340.356293
173.2686 9.875
173.284042 3.185606
173.323547 7.041667
173.416321 22.37137
173.472443 8.667636
173.600754 8.334401
173.95874 9.796296
174.261475 16.452681
174.357895 3.355392
174.541687 4.71627
174.648315 7.231482
175.001633 13.37281
175.073181 126.290199
175.110703 761.109375
175.14418 48.994781
175.185013 1.777778
175.236984 9.151881
175.334183 9.386905
175.348648 13.52355
175.39444 4.640152
175.479752 2.14881
175.586609 8.284091
175.917633 4.185606
176.024124 4.927083
176.052429 18.39646
176.130951 8.68889
176.357254 14.69187
176.676636 2.75
176.810287 9.099206
177.059219 34.189678
177.090698 399.584991
177.157272 2.666667
177.260147 5.136111
177.269287 8.818548
177.421814 8.081897
177.521072 4.375
177.621078 6.013889
177.741364 9.371913
178.349426 14.43333
179.084808 153.1978
179.104355 207.110199
179.130798 2.669444
179.236908 2.111111
180.768982 3.760417
181.09967 190.839203
181.263687 22.34947
181.414352 4.675
181.650909 19.22669
182.564697 4.0
182.856323 2.672619
183.100296 425.4711
183.119431 19.6681
183.218658 10.66667
183.398605 19.348431
183.454727 17.075251
183.496597 7.070402
183.84697 3.075
184.076706 5.340909
184.119995 26.44681
184.171524 19.375
184.189987 4.691667
184.203369 7.208333
184.369446 6.75
184.544266 10.20833
185.025467 9.371212
185.095261 5806.147949
185.12825 123.705597
185.154205 41.491909
185.185089 21.903191
185.197037 6.710784
185.23291 7.6
185.253845 6.001984
185.268051 2.337963
185.301651 11.26667
185.334381 6.201666
185.386414 4.35
185.400696 14.04748
185.481125 6.564103
185.498383 34.599701
185.514389 19.000731
185.585449 4.009259
185.658188 25.02952
185.751358 13.3555
185.803528 6.344048
185.823166 4.891667
185.859726 13.43167
185.983047 11.96491
186.021957 12.6713
186.100555 52.928108
186.379181 3.266667
186.391998 16.05192
186.471268 2.041667
186.983093 4.387821
187.07431 9.708333
187.111389 3426.833008
187.173874 5.416667
187.232315 23.77174
187.268158 12.72904
187.291473 4.708333
187.31456 6.001263
187.330811 7.680555
187.366928 5.692308
187.380463 10.06127
187.462189 10.50508
187.484634 20.33333
187.524109 14.66724
187.557465 7.078432
187.632858 5.666667
187.652893 20.059521
187.716629 12.6875
187.753387 14.7555
187.79567 19.01235
187.814835 5.0625
187.857742 9.671296
187.948349 9.667553
187.973587 21.744049
188.000809 2.347222
188.202438 2.408333
188.661728 9.506945
188.807816 7.388514
188.911865 20.004169
189.090195 1021.200012
189.123199 157.076294
189.147354 5.668333
189.194214 2.14881
189.401031 2.722222
189.43396 2.75
189.731476 9.386905
190.047928 15.43539
190.345383 5.005952
190.787216 13.47756
191.080566 13.17729
191.106979 202.201202
191.142609 98.322792
192.067551 4.001812
192.089233 42.647411
192.556213 2.893518
193.100693 23.66848
193.118637 30.938959
193.7621 7.777778
194.044479 18.48571
194.956711 22.385309
195.080292 130.564301
195.11496 172.951904
195.428146 15.03
196.317169 6.633772
196.899918 8.20119
197.096298 454.789612
197.138885 2.678571
197.168198 14.5
197.559067 6.703703
197.647339 5.444445
198.048462 10.41987
198.396225 6.335145
198.891434 8.692307
199.069885 35.70454
199.110977 859.342224
199.153488 15.40833
199.176102 6.160257
199.190857 24.89308
199.250092 30.033291
199.275009 6.080128
199.483887 3.741667
200.121307 99.247757
200.464539 8.006945
200.645599 77.158203
200.686249 5.002451
201.060974 8.023809
201.089096 191.742905
201.126648 483.149292
201.159683 2.354167
201.232941 7.736111
201.294403 9.680555
201.549637 12.19753
201.898697 18.48333
202.251572 6.391026
203.069183 24.48148
203.105911 11.95833
203.145187 96.752739
204.102768 10.54688
204.787567 8.030303
205.098358 76.910316
205.122162 213.3349
205.424271 2.041667
205.599899 11.11574
206.783859 6.125
207.118073 20.26042
208.031387 8.4375
208.132126 24.88805
208.142792 81.047623
208.367722 10.01961
209.040314 5.125
209.095078 256.55069
209.116928 32.344051
209.129364 55.307751
209.272949 7.058333
209.378403 5.856061
209.655273 4.71627
209.956375 2.520833
210.100586 191.341797
210.174438 3.028846
210.649521 8.518678
210.673706 8.146739
210.81543 4.673077
210.91246 4.297619
210.992264 2.347222
211.111282 2716.032959
211.173431 31.214769
211.198944 13.34167
211.219559 4.034091
211.240082 10.92004
211.270279 19.24074
211.290512 9.444445
211.336029 7.340909
211.376495 14.34375
211.396408 2.449074
211.427063 5.019737
211.453751 4.083333
211.481628 6.260417
211.549713 12.78243
211.575272 19.07778
211.843399 4.388158
211.857254 2.016667
211.88295 16.66667
212.009277 4.844298
212.095322 4.688725
212.198547 13.2395
212.691986 42.800999
212.800522 12.97961
213.086212 61.92804
213.127014 1280.859009
213.242142 13.24038
213.331177 7.640152
213.360382 3.640152
213.438705 14.01389
213.495972 7.335318
213.549347 2.916667
213.636871 2.815476
213.709671 4.080128
213.774643 9.980769
213.846848 9.007653
214.213303 5.742284
215.107452 26.294451
215.142776 183.530594
215.216278 2.520833
215.42038 28.11484
215.804855 8.001126
217.089417 12.02222
217.114075 147.173401
219.133926 81.76844
220.07782 19.013889
220.21817 12.15
220.385757 4.347222
220.883591 2.733333
220.971558 9.333333
221.092575 54.77309
221.131927 1.720238
221.152832 41.028851
222.10112 41.438438
222.276672 17.375
222.531082 35.499641
223.11264 941.643982
223.174881 9.084146
223.195663 4.019737
223.831375 9.338889
224.992874 4.157052
225.055008 1.720238
225.087631 65.193443
225.126572 349.452789
225.164352 91.785172
225.225525 19.944441
225.373657 5.573412
225.497833 10.94833
225.535492 36.8102
225.688416 20.70709
225.890076 9.25
227.100189 22.00514
227.141708 809.764771
227.294769 4.157052
227.427429 29.68116
227.462051 7.068182
227.76973 32.99741
227.808533 4.083333
227.992279 20.34375
228.340225 45.829151
228.38649 4.011905
229.065018 13.11574
229.097549 35.546879
229.110641 24.07626
229.124344 125.064796
229.160416 25.81175
229.191589 3.678571
229.471298 4.225
229.782059 34.809738
230.120087 61.001339
230.652786 15.76875
230.721481 16.693939
231.001526 13.29348
231.137375 779.26239
231.260788 7.130208
231.308395 3.010417
231.583237 15.04412
231.705414 4.003788
231.848404 5.001667
231.949112 14.35874
232.55687 4.306818
233.099594 139.775101
233.134232 42.635521
233.146805 4.675926
233.344604 14.75512
233.764618 8.004386
233.813126 7.779321
234.643066 7.677381
235.10997 497.460297
235.17627 8.144048
235.226181 2.520833
235.288391 13.12821
235.379166 12.56199
235.426834 4.469445
235.469788 7.357143
235.801285 19.69231
235.865494 4.225
235.971863 7.520833
236.117737 234.581696
236.150467 26.14744
236.822678 21.62722
237.089966 58.553421
237.127884 1775.510986
237.186523 2.336539
237.202591 32.223381
237.229385 7.789216
237.282974 6.33477
237.302902 12.11806
237.374008 3.933333
237.443771 5.673077
237.467194 7.297619
237.551041 10.52365
237.614594 17.171749
237.685074 7.173851
237.737411 24.07407
237.772949 11.3952
237.845993 3.686404
238.134735 1255.453003
238.391556 15.82843
238.570663 19.0466
239.103821 11.3344
239.291901 23.66297
239.308472 16.54825
239.367462 20.114731
239.397171 11.66667
239.415222 3.375
239.436752 8.348485
239.581543 10.78922
239.773666 20.627451
239.986145 2.336539
240.002136 3.066667
240.146057 183.6129
240.240219 16.54167
240.541565 10.28004
240.827393 14.4563
241.115143 57.75
241.128922 11.64744
241.157578 597.929688
241.308517 22.110291
241.45697 3.333333
241.481308 5.041667
241.654327 3.333333
241.750473 20.613371
241.973511 9.010715
242.49408 2.336539
243.099594 46.95266
243.138153 18.755119
244.427872 6.25926
245.114212 28.63344
245.133728 43.474079
245.74823 10.10746
246.103607 32.728981
247.109695 72.14547
247.145432 49.123741
247.181519 3.520833
247.388992 4.59375
247.678085 5.357143
247.990906 7.779321
248.114944 116.948601
248.636322 2.333333
248.676788 16.74107
249.127167 767.188171
249.212494 10.41667
249.297729 8.401667
249.345795 47.674271
249.449539 8.351191
249.603607 19.694441
249.652725 4.413462
249.727661 35.827782
249.766693 26.127541
249.892059 18.5744
250.096436 41.92683
250.577316 4.408333
250.694809 52.28323
250.814224 2.761364
251.108353 116.827202
251.142456 2505.365967
251.227554 3.666667
251.282761 8.708333
251.353317 18.648279
251.415314 16.87698
251.458923 11.38568
251.50885 4.340278
251.541962 6.364899
251.582153 26.97888
251.636871 3.720238
251.85498 22.09399
251.869156 54.024719
251.991379 9.080882
252.091736 24.46759
252.125809 4.720238
252.4561 11.13038
253.034546 8.494048
253.125443 148.778198
253.158844 6038.530762
253.229797 31.775141
253.254639 85.319366
253.287903 11.5641
253.327271 13.75347
253.349487 18.004869
253.372604 28.67857
253.398941 11.39103
253.412018 24.153709
253.438049 5.37037
253.477173 64.314018
253.498886 9.720239
253.554596 13.12857
253.584824 56.0994
253.667404 6.387821
253.781525 24.681339
253.80925 29.11599
253.825821 13.35185
254.03653 4.734848
254.210007 21.335779
254.496948 14.58586
255.119308 37.667419
255.175674 533.731384
255.385712 11.45864
255.419556 15.17729
255.653488 25.937941
255.754898 14.45614
256.092255 6.840517
256.10907 13.49135
256.140472 136.997803
257.1138 46.418739
257.190826 10.45581
257.301788 4.120098
257.704834 13.92754
258.715546 13.43333
259.144775 89.546547
259.325806 4.335
259.589203 10.08654
259.733978 3.386905
259.79126 7.37037
260.116058 103.995102
260.162964 45.185501
260.459961 6.818182
261.127777 773.80072
261.189117 10.94286
261.263794 11.3705
261.385925 2.339286
261.470642 12.7067
261.52655 8.05
261.600037 5.760417
261.713745 26.224079
262.162262 24.457069
262.399353 12.04167
262.42749 5.340278
262.754669 27.348009
262.992615 11.48761
263.142395 768.711975
263.178955 210.770401
263.280426 2.041667
263.346893 7.00641
263.516266 7.921875
263.562561 50.416611
263.765228 24.720591
263.810974 24.89966
264.065277 7.111111
264.156189 116.6744
264.343323 7.002778
264.607361 24.826719
264.709961 8.375841
264.980988 3.675
265.12262 137.029999
265.157867 637.376099
265.245575 17.670641
265.286835 26.70673
265.405945 9.267858
265.478394 5.733334
265.77002 3.166667
266.461517 12.97961
266.870117 7.333333
267.137115 458.513092
267.222626 7.335526
267.321106 3.640152
267.353424 6.364899
267.507019 7.001812
267.73468 8.061869
268.05246 7.107143
268.178864 9.240384
268.35199 5.306818
268.904602 3.266667
269.086731 4.001812
269.110962 77.766586
269.153046 349.871613
269.233856 2.333333
269.742188 4.007576
269.880707 7.446428
271.132202 22.475
271.465088 2.003788
272.658234 6.728535
273.128387 73.719673
273.161194 32.846149
273.286407 3.857143
273.394104 22.67244
273.474548 5.415
273.80719 11.18939
274.138336 403.993408
274.525482 6.25
275.142883 509.421906
275.255127 2.35
275.324402 9.676282
275.58432 7.719017
276.121582 5.088768
276.162354 18.01667
276.474335 4.349638
276.896759 7.334402
277.121033 50.785469
277.159485 1176.666016
277.412201 8.20119
277.426697 8.775641
277.493744 2.341667
277.545502 9.735544
277.562866 7.388514
277.587555 2.408333
277.605804 20.963091
277.742004 49.844269
277.7995 14.97348
277.897034 9.361112
278.1315 91.111458
278.276581 20.93257
278.403137 31.846109
278.584686 24.32303
278.659454 17.334351
278.822021 9.676282
279.138245 1023.148987
279.173798 2481.698975
279.286926 6.66821
279.35675 6.826923
279.436584 13.95337
279.474274 14.83333
279.513733 21.853121
279.564667 48.043049
279.624603 12.11484
279.659271 25.802679
279.679657 22.66667
279.69986 9.823148
279.72641 14.875
279.747253 6.668651
279.775452 48.903252
279.827911 15.0394
279.880554 5.380952
279.999695 22.087721
280.033447 13.66793
280.18161 3064.010986
280.193176 24.444441
280.252899 11.40741
280.367889 20.64855
280.3927 11.93378
280.424408 13.69338
280.485779 7.382936
280.544525 19.838711
280.625732 5.666667
280.719299 18.880341
280.74231 29.001341
280.940155 19.158899
280.987152 13.40517
281.068817 5.338889
281.100891 2.916667
281.348816 4.678571
281.428406 63.01535
281.529785 1.720238
281.640686 10.01071
281.677673 13.0803
281.731964 26.970449
282.031982 11.74383
282.492615 5.490385
283.126831 13.26453
283.160461 73.675903
283.825958 7.84375
283.869507 6.201666
284.026459 4.017857
285.146667 187.253494
285.166718 39.041672
287.160675 98.175407
288.157623 183.400299
288.524841 6.506945
288.749207 17.17778
289.230927 15.51515
289.418152 15.47619
289.453308 4.481482
289.559784 17.338079
289.891388 12.11935
290.761932 8.694445
291.174347 559.093018
291.285034 12.11935
291.375336 32.79332
291.410461 8.339286
291.427551 7.690476
291.470245 18.20154
291.534454 8.352941
291.576111 16.78602
291.647308 5.682971
291.728821 7.335318
291.944458 9.035714
292.066132 16.00379
292.095825 56.720169
292.137543 100.045502
292.247864 3.094697
292.297119 17.516439
293.049316 47.851921
293.15152 501.292114
293.189941 1456.485962
293.238251 33.068649
293.261658 1.694445
293.278015 24.6061
293.337555 16.33333
293.36264 24.16333
293.385376 24.82222
293.445618 20.048731
293.480988 20.19813
293.502838 13.23611
293.535797 18.773809
293.795349 9.025001
293.856354 24.06115
293.915802 19.432541
294.124664 8.25
294.721802 8.148809
295.168091 172.659805
295.246796 2.666667
295.569702 12.36381
296.049652 4.15
297.149658 650.982727
297.182281 270.208099
297.246887 6.003205
297.29599 20.57346
297.459686 7.416667
297.482208 7.408333
297.966919 6.449713
298.008942 10.28004
298.199951 8.111112
299.200928 310.576813
299.271454 1.671296
301.179291 8.041667
301.26535 13.28167
301.381561 7.333333
301.568817 6.791667
301.768219 12.54459
302.245941 6.927469
302.518036 8.005952
302.681427 5.34375
302.826843 11.74167
303.174469 2470.13501
303.246887 20.986111
303.339081 17.12933
303.432648 14.77778
303.475861 19.09524
303.49884 31.1443
303.521881 6.037281
303.621094 10.35526
303.636108 17.970579
303.670349 4.375
303.692932 8.363637
303.771881 11.74167
303.791534 6.963235
303.826447 7.053572
303.844055 14.02778
303.857635 21.87792
303.918365 11.78914
304.04129 10.42424
304.081665 8.491228
304.294647 33.511768
304.390656 6.0
305.429047 2.449074
306.156982 100.863998
306.336426 7.714285
306.959198 6.041667
307.854004 2.722222
308.171936 42.258339
308.886078 20.418791
309.182892 629.99762
309.265533 8.458333
309.339081 9.753205
309.369659 2.669444
309.407593 48.84182
309.455322 15.3592
309.516541 6.729167
309.583862 6.068182
309.64502 30.69136
309.729706 10.68056
309.816467 7.435897
309.853241 14.00682
310.061493 5.777778
310.47287 8.148809
311.160706 78.296448
311.199982 264.139893
311.37381 10.07407
311.764954 3.266667
311.877716 16.18532
313.033478 3.010417
313.181702 15.92287
313.249817 24.44186
313.443359 8.054487
315.158447 355.824585
315.321198 9.692073
319.143646 13.84314
319.298553 15.78305
319.443298 7.410257
319.481049 14.08877
319.524292 16.72024
320.040192 15.4902
320.33902 47.297081
320.420319 9.1875
320.82605 18.74786
320.855652 11.69643
320.955353 11.40514
321.110626 48.58828
321.185089 2949.894043
321.264893 43.873772
321.391785 2.722222
321.433685 7.932018
321.461212 26.61887
321.497345 8.011905
321.540009 8.586111
321.585327 14.47348
321.641296 10.38313
321.742065 25.775761
321.79715 4.680556
321.934784 25.85227
321.99826 11.39425
322.159363 15.82036
322.390839 9.088768
323.540802 2.625
327.195557 150.902603
327.209778 6.748333
327.443176 8.027778
327.846954 20.13043
329.172302 23.0
329.205139 45.593121
337.128632 11.92188
337.715942 2.0
338.176331 5.522727
338.438751 9.066667
338.579376 7.201666
339.194763 1967.739014
339.272675 4.053571
339.290466 15.00776
339.355072 5.265351
339.380188 7.407407
339.426056 12.1875
339.489166 6.006945
339.537262 5.25
339.572327 24.006359
339.623779 7.704166
339.689911 6.906746
339.73056 11.68056
339.76416 10.90948
339.86319 11.59722
339.98291 12.33621
340.007416 17.687651
340.198669 20.15
341.684479 8.68889
342.54715 5.037037
344.839844 23.01042
344.997253 4.791667
345.742493 4.59375
354.970551 60.345711
355.068665 23.000561
355.139038 10.75725
355.206024 5.0
355.262085 23.89089
355.827759 1.672619
356.539917 3.416667
357.205475 3029.103027
357.289032 35.349579
357.312408 4.013889
357.359711 37.552151
357.396515 28.07
357.434662 49.086281
357.487823 28.048611
357.566925 6.668478
357.617737 25.150539
357.713654 4.673077
357.826996 18.94676
357.970306 9.00119
358.040344 4.266667
358.095978 39.149712
358.641998 1.777778
359.348175 37.632839
359.78537 6.560185
375.212494 51.284889
434.164734 7.0
434.476501 3.342592
448.25415 39.661541
737.023865 2.386905
1019.806702 26.526871
1397.979492 2.14881
1451.54248 5.015
1594.575073 12.76667

>ms2peaks
101.036026 88.833344
101.060318 43.8741
101.078903 3.4
104.469444 1.720238
104.546654 15.97531
104.585609 9.724999
104.625656 10.45581
104.660683 24.486111
105.068863 2907.991943
105.112823 11.81649
105.12709 6.66821
105.194862 9.399194
105.219582 6.120098
105.227005 3.440476
105.251801 5.347222
105.300339 8.881667
105.323372 10.83
105.357277 12.0443
105.469803 13.30864
105.551987 4.721491
105.61499 6.5
106.120605 4.523809
106.495346 21.78009
106.576294 5.469444
106.682297 8.027778
106.849792 9.0
107.048325 181.820496
107.084785 2340.687012
107.123421 15.125
107.133446 7.407609
107.153877 15.08611
107.164192 8.555555
107.180916 7.921875
107.213226 9.335526
107.296173 8.004167
107.347374 6.446428
107.44397 5.088768
107.483757 10.0163
107.537506 2.386905
107.563179 12.3375
107.591484 4.020833
107.689339 24.484209
107.858475 5.260417
108.039787 5.351191
108.0868 15.66667
108.493866 21.9391
109.063248 493.205688
109.101974 537.849182
109.163666 1.666667
109.170364 1.777778
109.242294 6.98077
109.329834 9.8
109.443726 13.67465
109.516693 8.022223
111.043221 194.947906
111.080177 103.159798
111.434929 3.185606
111.448135 2.520833
111.476608 5.76923
111.778008 3.666667
111.967506 6.666667
112.758514 3.666667
113.058922 219.399307
113.117241 2.053571
114.473946 6.166667
114.522247 6.6
115.035919 240.889297
115.054146 554.38562
115.099396 8.757419
116.2911 15.70525
116.588074 9.680555
117.070114 1142.494019
117.114189 9.017858
117.285919 8.708333
117.340553 3.337121
117.7742 5.013889
119.048515 44.418179
119.085388 1296.108032
119.146729 6.066667
119.265587 17.28409
119.350815 15.92803
119.487 7.375
119.524185 16.354839
119.633102 4.518939
119.929848 4.013889
120.309814 4.0
120.344246 8.865196
120.37851 20.01829
120.466316 10.02216
120.57325 11.66954
120.588715 3.490385
120.693901 28.53549
120.718452 4.333333
120.753067 21.48572
120.921127 6.125
120.971001 7.656609
121.064301 5030.198242
121.099411 444.235901
121.127945 13.56199
121.148964 18.450001
121.194801 2.166667
121.239441 12.11667
121.264496 31.558149
121.277206 7.033333
121.290573 4.125
121.304321 34.985519
121.339714 13.65351
121.420372 9.897988
121.438126 15.34524
121.468536 16.503469
121.487076 8.564815
121.507141 4.666667
121.544106 4.111111
121.564674 6.728535
121.768044 14.69444
121.833313 10.075
121.963905 10.78205
122.048454 12.4697
122.270309 9.229167
122.764351 11.66987
123.041382 66.894173
123.079285 344.379486
123.111794 23.03266
123.134666 5.00641
123.244713 5.125
123.29422 21.187149
123.413513 6.075
123.66272 4.226852
123.904083 7.676802
125.006294 7.407407
125.057655 365.262695
125.107445 3.333333
125.609909 6.422222
127.057762 28.30102
127.280296 7.360043
127.427132 25.495939
128.061127 170.741592
128.275208 11.77083
128.372375 3.854167
128.57486 5.840278
129.069305 681.937012
129.119293 3.185606
129.238419 7.35
129.627808 5.391026
130.078873 238.678101
130.122543 3.416667
130.2966 13.49135
130.876953 13.50538
131.028229 11.01449
131.047974 88.605957
131.085571 1443.17395
131.121552 7.125
131.148087 10.92188
131.223068 7.013889
131.407394 8.518678
131.578461 3.125
132.05455 61.456619
132.133728 3.458333
133.064102 307.485687
133.100906 1368.322998
133.147293 13.73111
133.295868 17.333969
133.363342 5.927083
133.424423 20.35038
133.533264 16.354839
133.605225 4.340278
133.717819 9.742284
133.770447 25.82008
134.339035 14.44079
134.438995 13.88561
134.467224 2.666667
134.519684 6.04529
134.531082 5.703947
134.551697 16.836809
134.59639 4.481482
134.656906 5.480072
134.67305 9.445371
134.83876 20.20977
134.968323 8.45
135.010361 4.625
135.042435 166.755402
135.080032 6337.780762
135.128098 66.509262
135.149796 20.945431
135.16951 30.1696
135.178818 20.748329
135.210999 24.5354
135.226746 34.34325
135.234802 14.80556
135.251694 8.314815
135.276535 19.402781
135.316055 8.755208
135.360214 10.02381
135.368805 16.130381
135.392624 6.380208
135.416733 10.01786
135.429108 24.41667
135.463089 6.1875
135.507126 19.7815
135.569733 21.11311
135.599152 4.666667
135.639725 4.337121
135.659927 23.366751
135.676132 16.11961
135.995285 8.333333
136.361832 6.363636
136.430908 21.00877
136.46228 32.83429
136.491852 11.33333
137.059341 398.661499
137.107117 2.14881
137.709885 11.77174
139.074722 258.641602
139.175644 4.34375
140.112396 30.348431
141.067444 238.638794
141.259445 14.875
141.339218 3.375
141.615463 1.6875
141.677185 9.037037
141.689987 16.111771
141.752121 10.96014
142.076172 468.064392
142.506943 8.491228
142.542679 6.218137
142.70636 11.02315
142.882355 4.297619
143.085983 878.99231
143.147217 9.72
143.284607 4.674242
143.322571 14.19468
143.37207 6.004902
143.426239 7.116379
143.435272 1.708333
143.655472 5.684524
144.05484 126.486603
144.118698 2.337963
144.227142 3.005953
144.293045 22.48
144.626541 3.0
144.967728 6.378623
145.063873 1235.612061
145.099426 893.135376
145.146423 7.815476
145.16539 3.407738
145.299454 13.16071
145.697479 8.676282
145.726868 7.06586
146.07338 1023.703003
146.379547 8.595239
146.39537 10.03571
146.492203 4.355392
146.551208 2.761364
146.606003 17.008329
147.080353 932.552429
147.115814 195.072906
147.152039 12.37644
147.313232 39.387981
147.323074 10.47115
147.648193 8.671875
147.712631 19.518591
147.992996 9.642095
148.244873 8.934524
148.691193 12.97663
149.05632 46.66777
149.095428 524.719421
149.13121 85.213997
149.207901 3.402778
151.054794 44.172089
151.075912 57.21373
151.108734 64.651741
152.063629 106.755096
152.948395 8.704545
153.068802 180.527206
153.30368 3.266667
153.371368 3.802778
154.074783 138.777893
154.260208 13.17729
154.312256 26.868589
154.420013 10.69207
154.766068 13.12321
155.084488 353.556091
155.726181 4.25
156.091248 249.104095
156.251175 29.444889
156.366272 10.04167
156.545609 15.68627
156.802505 14.3668
156.841721 5.702587
157.06073 67.989113
157.100449 462.672394
157.168579 4.688889
157.225357 6.672619
157.23407 5.088768
157.394623 19.20833
157.587616 5.667929
157.701202 11.57576
157.81572 10.59274
158.072723 1046.215942
158.12175 9.492559
158.186844 5.388889
158.225876 3.011905
158.272018 8.752179
158.291992 22.172041
158.389313 33.12632
158.422852 8.367424
159.080353 3219.163086
159.116516 448.945099
159.164246 3.336111
159.194473 25.974991
159.220932 10.75
159.286636 10.66667
159.330338 9.815476
159.352509 7.2
159.370224 8.336111
159.568604 20.28125
159.6185 11.9641
160.158569 15.65152
160.214417 3.402778
160.246689 24.906059
160.266205 45.807961
160.331757 16.097219
160.346664 10.94737
160.372787 8.734849
160.447861 8.041667
160.478714 8.673612
160.506393 5.787037
160.602142 28.560101
160.659409 21.36937
160.77359 4.458333
160.796021 27.478741
160.813843 5.335145
161.060104 121.8909
161.095566 5953.754883
161.127396 25.668859
161.167557 44.197189
161.180405 20.23148
161.188965 30.671419
161.203018 32.583328
161.21669 7.935
161.231018 13.83333
161.299316 17.03582
161.317322 10.13495
161.330948 19.782049
161.343719 29.046801
161.364166 18.16346
161.396576 26.335779
161.409973 7.692308
161.425812 16.70833
161.454178 6.0
161.467499 15.64167
161.491241 12.43611
161.513611 20.544451
161.52446 5.773809
161.54808 9.006566
161.604507 2.671296
161.635422 15.93548
161.644333 15.34762
161.679703 12.43254
161.719193 7.714285
161.741379 7.703703
161.856995 32.642818
161.870773 24.25926
162.011627 19.6707
162.073151 4.041667
162.887634 89.716843
163.033127 3.560185
163.073242 23.148149
163.146729 17.710779
163.557327 3.375
165.06955 121.473503
165.089996 133.647903
165.126343 73.017097
165.155167 9.721154
165.972092 1.671296
166.074142 155.803299
166.259689 6.740942
166.335724 20.713961
166.516083 5.787037
167.084457 339.363403
167.126068 2.027778
167.837265 5.025641
168.171127 7.506945
168.384613 3.854167
169.102631 237.809906
169.310684 2.408333
169.367874 3.518939
169.417175 27.13674
169.644897 6.033333
170.07164 228.481506
170.107422 88.567596
170.311523 14.73016
170.343216 20.027781
170.684128 4.677083
171.079163 904.440674
171.116409 161.815903
171.152588 3.010417
171.161667 2.336539
171.212753 2.680556
171.275589 15.20513
171.311905 38.87793
171.325989 23.38703
171.449265 20.523809
171.516815 10.88158
171.543961 5.844298
171.653595 4.033333
172.08725 1010.328003
172.121017 56.000259
172.157608 2.5
172.242065 7.666667
172.35643 6.394608
172.410049 4.185606
172.452148 18.335649
172.478424 7.446428
172.552734 5.494048
172.827408 10.02206
173.094864 1340.593018
173.132782 183.304596
173.157272 1.680555
173.188461 4.011905
173.211639 20.200491
173.261169 3.675
173.284622 19.37126
173.442657 6.0
173.481598 8.336805
173.522842 7.2
173.536591 5.391026
173.587112 10.02193
173.651184 11.13807
173.82634 3.75
174.266022 7.668104
175.113403 393.739288
175.148071 1.708333
175.16745 2.671296
175.211975 5.888889
175.459808 6.833333
175.567673 14.45588
176.223297 5.333333
176.348007 7.700269
177.066422 29.70455
177.089478 193.613495
177.200409 20.15238
178.077026 370.332703
178.69339 6.716667
179.083771 181.965698
180.090836 78.875763
180.198639 11.72
181.064133 345.736694
181.101624 434.40979
181.487518 1.875
181.987 5.801667
182.108521 381.909485
182.37735 8.148809
182.998871 29.815001
183.078354 258.213013
183.227966 37.007092
183.262314 3.640152
183.31282 34.67841
183.334045 4.5
183.354858 7.394608
183.444626 4.107143
183.524872 6.482143
183.918228 23.165871
184.033691 18.87179
184.086975 357.575195
184.124817 107.299301
184.142776 10.77632
184.180511 14.53846
184.240036 13.04167
184.343628 15.71408
184.667175 4.382936
185.095322 4877.89209
185.151001 60.421509
185.16713 6.566138
185.186462 24.93709
185.241837 41.393051
185.268082 16.46505
185.35173 17.14423
185.367508 16.0026
185.396027 20.21731
185.422592 9.160088
185.442871 15.62681
185.469925 47.64278
185.533325 8.0
185.557022 21.53912
185.585449 8.41565
185.675507 13.0
185.789291 8.144048
186.205093 22.335369
186.32077 2.347222
186.453751 7.011364
186.484634 12.32372
186.586899 12.34626
186.686584 5.333333
186.724625 7.162634
187.05304 10.8375
187.076736 56.667061
187.110825 2493.836914
187.167664 30.69388
187.186035 8.463542
187.25267 2.0
187.272354 13.72024
187.290756 4.681667
187.352875 12.72799
187.366943 10.20417
187.428406 9.535
187.455048 10.54167
187.519348 7.68421
187.758408 3.703704
187.812439 3.666667
187.918671 4.053571
188.062836 6.004902
188.148712 7.442204
188.76001 3.703704
189.089706 450.311493
189.125916 151.210999
189.209076 10.96909
189.429749 8.462607
189.645935 20.5763
189.663513 4.027778
189.707565 7.829301
189.736313 2.003788
190.627579 31.40064
190.753708 5.208333
191.083145 76.620659
191.104874 59.388809
191.138733 44.231869
191.171829 10.30044
191.662811 13.68421
191.998703 8.125
192.093643 277.226898
192.448776 8.408951
193.100281 1077.089966
193.162979 5.932018
193.207077 9.676282
193.22641 9.681159
193.304214 15.67867
193.356232 3.518939
193.415451 6.673611
193.463348 4.714286
193.498871 13.41667
193.521515 10.44537
193.715012 10.86786
193.754517 17.80682
193.817352 14.62821
193.986389 5.76923
194.071533 59.566071
194.369522 11.22685
194.688339 7.157051
194.757568 6.671053
195.079102 1661.422974
195.114761 446.616913
195.131577 9.548245
195.172882 2.083333
195.218994 6.728535
195.27739 5.346264
195.301636 8.030303
195.524658 10.04762
196.2509 18.015551
196.319138 3.003788
196.381622 19.836309
196.469818 8.494048
196.485703 3.483333
196.613876 15.14286
196.778168 9.1875
196.8246 4.560185
196.924026 6.125
196.987503 2.678571
197.055832 2.4
197.130966 91.661987
197.182846 22.33333
197.223679 19.6
197.331329 15.125
197.461395 3.355392
197.6521 2.367424
197.941956 3.375
198.10289 150.173004
198.151291 12.68561
198.171112 17.388889
198.317978 7.669445
198.680527 27.17815
198.705154 11.09399
198.763931 1.720238
198.842392 11.11111
198.941467 6.740942
199.07933 55.989868
199.109848 646.954224
199.146866 75.333572
199.190842 2.016667
199.276215 30.16538
199.392822 19.534821
199.63298 6.070402
200.495056 15.04167
200.96727 5.668478
201.06424 73.862343
201.085358 41.188278
201.124222 114.899902
203.083542 88.987297
203.102203 35.843948
203.118317 1.672619
203.376465 9.429762
203.505295 14.35874
203.813034 2.005952
204.090073 111.647003
205.099564 305.644196
205.161194 2.005952
205.271317 4.225
205.370544 2.722222
205.409973 10.42519
206.123856 25.002529
206.198975 3.355392
206.318893 7.560484
206.350754 10.56466
206.468948 31.62994
206.838898 9.736842
207.082382 150.906494
207.113922 431.687012
207.394821 8.605556
207.600586 15.77632
207.6604 38.059181
207.679977 2.416667
207.956146 24.19738
208.061295 5.670455
208.087601 339.596985
208.123199 309.389496
208.272659 2.361111
208.304947 2.875
208.367722 6.012097
208.985855 17.0
209.05545 19.36167
209.095078 1672.749023
209.156387 10.49359
209.182037 4.674242
209.251175 2.375
209.328354 9.122475
209.507156 1.777778
209.600021 18.0473
209.675491 13.70614
209.79454 16.25316
209.832275 8.148809
209.876968 5.391026
209.908569 16.04167
209.927338 16.179951
209.95256 9.435606
210.035492 12.62976
210.053055 18.424999
210.102661 770.451416
210.166458 8.090909
210.187469 13.4814
210.215042 5.939394
210.265457 3.490385
210.386383 7.605556
210.487244 2.0
210.578888 1.777778
210.880585 6.875
211.067108 26.29348
211.110886 3021.330078
211.164368 31.24474
211.199875 31.821819
211.230072 17.763161
211.266785 23.79487
211.321136 7.337121
211.346146 7.03858
211.386627 8.11638
211.414429 2.166667
211.443497 5.041667
211.469543 23.58828
211.481201 34.669121
211.50592 19.413811
211.542404 17.12121
211.565948 28.01626
211.639511 2.733333
211.72113 20.79167
211.808929 25.66773
211.912308 21.03347
212.047379 64.893547
212.079987 28.11574
212.24202 11.35526
212.622559 15.66975
212.643951 15.33415
212.698654 8.736842
212.917114 15.51483
213.089722 23.97283
213.127258 572.12262
213.198776 6.675926
213.505051 11.41667
213.73494 6.349638
213.976379 13.17361
214.10968 14.86786
214.662582 32.7211
215.084686 67.793068
215.111069 6.034091
215.140976 39.667011
215.830811 29.12022
215.850861 10.00915
216.09317 46.842209
217.098495 106.7239
217.120285 12.3343
218.136444 3.375
218.496597 6.306159
219.001129 15.79605
219.041687 3.003205
219.077408 107.419899
219.117035 188.967102
220.084732 190.778
220.123703 261.123291
220.170715 3.0
220.284302 5.681667
220.516586 7.336111
220.847427 3.35
221.093674 235.516495
221.129929 161.051193
221.245728 14.43333
221.309341 12.97556
221.608109 12.00417
221.789688 8.388441
222.033295 12.11484
222.103119 865.016724
222.140427 93.388893
222.170914 3.482143
222.236893 37.569191
222.349258 9.486112
222.432449 2.083333
222.514969 4.0
222.582794 7.705246
222.885452 3.002451
223.111694 1539.182983
223.172958 7.696429
223.213791 22.593309
223.273636 8.334459
223.290802 18.03846
223.341293 13.80682
223.356995 13.71078
223.544678 26.517941
223.606445 6.0
223.674789 13.11204
224.11882 1143.849976
224.168625 10.3447
224.189468 4.022059
224.322021 14.8848
224.460129 5.906746
224.503082 4.773809
224.822418 19.32184
225.081635 55.44762
225.186157 3.15
225.198532 13.70833
225.352737 7.075
225.371429 9.204166
225.483139 3.380953
225.49881 6.449713
225.53125 6.446428
225.68692 7.088889
225.727905 3.555556
225.744278 17.354589
226.131989 125.2565
226.288345 10.13626
226.314575 7.00926
226.333466 13.3008
226.67598 13.75347
226.68895 7.760417
226.764816 2.0
226.874588 8.777778
227.090515 10.29643
227.107513 114.458
227.142242 130.342102
227.761276 7.088889
228.088165 41.124359
228.188934 7.757576
228.41803 8.41565
229.103073 130.504593
229.721588 18.65988
230.106995 52.242771
230.916229 6.531863
231.089462 63.69743
231.11879 127.945801
231.138641 102.5252
231.896072 7.463542
232.080627 47.440811
232.675491 6.341667
233.032028 1.777778
233.094238 280.154602
233.132095 36.0
233.37648 24.395491
234.101929 271.796509
234.135925 77.868553
234.195648 6.022223
234.408661 8.41565
234.731171 2.347222
234.75499 33.127258
234.83017 17.76182
235.111267 444.83551
235.147339 165.363098
235.288315 2.680556
235.432419 12.19048
235.480286 7.054825
235.582794 17.25
235.774155 23.40205
236.06601 10.12037
236.116989 474.140594
236.128128 18.947371
236.224625 9.053572
236.301361 28.02142
236.417694 5.787037
236.61348 4.714286
236.93985 3.458333
236.966904 9.773936
237.086548 45.1278
237.12709 790.973022
237.347595 6.75
237.707794 24.376961
237.962097 8.906746
237.996231 4.025
238.110306 50.20417
238.134415 990.69458
238.189194 14.03019
238.756638 8.551471
238.861252 10.41667
239.097733 10.83
239.245529 7.306818
239.409744 9.668651
239.438782 10.64651
240.104721 11.09921
240.694626 10.76006
241.092667 95.586479
241.135452 3.670455
241.153946 18.65988
241.306702 6.306159
241.827316 7.422101
243.111526 19.78842
243.365143 7.898148
243.670303 6.667857
243.69783 26.428921
244.090118 23.835649
244.124588 47.66449
244.551239 21.02083
244.67836 10.38075
245.092377 190.990005
245.129517 193.126495
245.307281 12.92004
245.362122 9.337963
245.434341 12.97663
245.54068 6.720238
246.102692 280.166107
247.110519 243.543503
247.144501 88.516853
247.239761 4.225
247.313339 17.33333
248.120636 212.219299
248.187515 2.0
248.406784 6.011364
248.537354 16.097219
248.581665 18.236111
248.664185 6.272727
248.834564 8.083333
249.065979 38.949211
249.086761 58.773129
249.125534 296.414001
249.160843 47.89547
249.196976 3.345238
249.386612 4.763889
249.409988 4.053571
250.13208 256.586914
250.20842 2.761364
250.247009 5.335318
250.296539 8.523648
251.101425 121.419998
251.142456 1108.749023
251.174179 78.050179
251.210922 4.814815
251.233063 3.028846
251.27771 4.225
251.310333 24.02347
251.332336 3.355392
251.469925 9.272223
251.552994 10.125
251.674042 8.075
251.688187 9.833333
252.110184 49.763
252.228333 6.866667
252.583084 12.54167
253.158081 881.552673
253.227219 8.752179
253.30513 7.411765
253.380524 14.04167
253.443298 39.14716
253.460205 11.72307
253.477829 7.815
253.809052 17.729271
254.40271 4.844298
254.792297 12.52134
255.140686 12.57353
255.173508 88.414589
257.151764 46.741669
257.558533 13.25494
258.102905 202.498505
259.111359 287.349792
259.371246 2.694444
259.460358 5.675926
260.117462 206.088303
260.446533 18.43219
261.124268 197.581894
261.172241 3.0
261.596832 36.014999
261.766571 4.013889
261.898193 25.53912
262.016235 10.66801
262.13446 270.602814
262.444397 5.088768
262.500763 4.673611
262.821045 9.208333
262.85849 12.62976
263.139648 644.633484
263.178955 165.272202
263.326843 6.533333
263.386597 11.79542
263.450806 16.706699
263.510651 2.0
263.533234 20.000481
263.573792 6.25
263.61795 10.28004
263.827301 10.17385
264.109619 122.741898
264.245209 1.720238
264.262848 13.04348
264.358429 11.66759
264.583069 10.1201
265.157471 1623.987061
265.224548 4.335
265.246918 3.339286
265.286865 9.145833
265.348969 8.422101
265.443573 4.013889
265.462799 17.45336
265.495605 23.156481
265.519257 11.66667
265.594482 25.085939
265.615814 15.13043
265.644318 4.898148
265.820557 4.963235
266.129242 13.75556
266.182495 10.81548
266.270966 5.916667
266.421326 10.22866
266.438385 12.39844
266.802979 3.926282
267.134308 29.93965
267.199829 2.375
267.484314 15.3555
269.124939 40.867859
269.288086 20.26786
269.46756 8.037037
270.139557 52.12682
271.14502 33.599998
271.625214 10.68333
272.113281 19.151239
273.126404 212.579895
273.842865 3.016667
274.138855 110.215401
275.143616 256.609802
275.175201 39.921879
275.723083 9.063725
277.125122 26.28009
277.522339 8.573529
277.986633 8.081897
278.118958 12.17385
278.163605 117.800301
278.392944 15.42857
278.996307 4.66821
279.130981 14.88971
279.145569 75.633377
279.174011 473.811096
279.396973 24.619049
280.005981 5.854167
280.131409 32.457691
280.179901 471.9841
280.590759 12.34848
281.109833 35.670792
281.15152 90.125648
283.153687 4.027778
285.630615 7.0
285.677643 6.667735
287.14328 101.333504
288.151489 246.643906
288.231445 1.671296
289.246124 13.52447
291.140808 70.868584
291.174713 79.505493
292.140198 33.439011
292.180267 36.74194
293.150269 158.141602
293.188354 116.061699
293.462646 5.265351
293.814392 4.333333
294.022766 4.736111
294.250214 11.70417
295.175964 39.597462
297.15448 23.08333
301.164185 12.00765
303.170837 61.996078
303.256714 10.03852
304.505981 9.671296
306.160431 66.865463
306.190796 7.786765
307.526917 3.760417
308.180756 91.766273
308.209198 3.347222
309.417969 4.020833
311.1633 139.748596
311.199127 67.147774
321.183197 24.32655
377.901031 2.761364

