>compound Ramipril M+H
>formula C23H32N2O5
>parentmass 417.2383985760905
>ionization [M + H]+
>InChI InChI=1S/C23H32N2O5/c1-3-30-23(29)18(13-12-16-8-5-4-6-9-16)24-15(2)21(26)25-19-11-7-10-17(19)14-20(25)22(27)28/h4-6,8-9,15,17-20,24H,3,7,10-14H2,1-2H3,(H,27,28)
>InChIKey HDACQVRGBOVJII-UHFFFAOYSA-N
>smiles O=C(O)C1N(C(=O)C(NC(C(=O)OCC)CCC2=CC=CC=C2)C)C3CCCC3C1

>ms2peaks
249.030731 6.833333
302.131622 71.705292
336.906036 3.0
365.169067 12.00872
433.065033 4.773809
434.529144 3.703704
435.230469 19.29348
436.311371 36.11903
436.350952 21.581369
436.380463 19.279011
436.421631 60.917469
436.44577 11.46136
436.484589 90.502724
436.547272 3.041667
436.598083 36.43565
436.642029 11.44537
436.677063 14.92188
436.73407 9.080953
436.819855 71.268478
436.845215 27.06074
436.86792 48.239601
436.964081 22.712
437.034637 4.047619
437.068481 9.852273
437.200409 37.965172
437.245392 9.854167
437.573273 19.693451
437.714935 5.583333
438.029999 14.63575
438.105743 7.852564
438.22821 10.725
438.658142 7.969086
438.847443 9.342054
438.955688 12.52006
439.051514 11.48316
439.137421 29.34981
439.168854 110.945
439.219696 14218.94043
439.306763 165.224396
439.393921 142.759293
439.447723 64.315201
439.487579 79.983147
439.509216 17.85606
439.548157 23.06888
439.579803 34.174881
439.604889 104.749702
439.6362 87.287086
439.716217 38.477371
439.760071 57.436878
439.846588 46.916439
439.929718 39.49762
440.025024 24.315121
440.068085 38.867168
440.091675 39.938271
440.536224 24.49435
440.6922 52.106781
440.906372 66.988564
441.124542 14.21894
441.250153 19.038931
441.37265 6.395833
441.452271 22.153629
441.64389 6.714285
441.70282 3.361111
442.033081 7.653986
442.411102 20.346861
443.121155 9.679012
443.581329 7.041667
444.044373 5.729167
444.653046 12.44048
444.895142 7.004902
445.952423 6.761905
448.808105 6.541667
449.07605 10.09091
459.565674 3.761364
594.295227 30.83333
680.367981 8.847222
735.102661 28.04085
849.901672 12.85339
850.856873 10.02315
851.083252 12.78333
851.141052 13.0
852.257996 2.672619
855.448242 1774.477051
855.558838 55.920219
855.683716 47.01429
855.730774 5.226852
855.823853 18.882
855.891357 62.679131
856.143494 13.5307
856.262085 15.125
856.626526 44.674
856.84436 27.994619
856.931702 11.88013
857.016907 20.270639
857.327454 18.97023
858.250244 3.727941
859.168762 14.57372
861.6474 4.341667
905.950134 9.333333

>ms2peaks
137.031006 67.316948
256.126984 12.81667
302.138458 254.300507
434.935364 3.002451
435.857269 8.765873
436.256409 16.68519
436.31839 50.020481
436.373444 14.31144
436.409454 11.36232
436.434967 43.001141
436.467072 2.361111
436.49942 64.554466
436.525757 30.768881
436.569153 64.009041
436.620361 39.65514
436.678375 8.364899
436.740417 22.95602
436.798096 39.60038
436.898956 27.448759
436.983734 11.05833
437.092834 34.043861
437.19754 14.38939
437.45697 28.32831
437.734344 74.302277
437.827728 4.355392
438.060974 18.094481
438.133514 4.002451
438.163574 3.185606
438.528412 42.25029
438.840912 5.5
438.905762 12.08333
439.104675 30.24773
439.219818 15197.75
439.298462 222.145996
439.338867 108.482498
439.362244 25.125
439.388489 51.225109
439.448608 44.402771
439.486603 61.562931
439.513275 98.656219
439.578766 19.717951
439.608643 145.747192
439.635468 18.884661
439.671753 132.158096
439.764587 81.572838
439.876312 116.885803
439.904999 61.599411
439.958374 56.51244
440.03949 89.862717
440.060272 38.76141
440.13858 75.541367
440.43222 43.32708
440.704895 29.94697
441.285309 20.794701
441.412537 3.708333
441.964844 3.00463
442.091003 2.520833
442.755615 3.857143
442.869934 6.125
443.179749 8.086538
443.296936 3.025
443.531372 7.334402
443.809814 4.335526
443.912323 1.666667
443.950958 7.935
444.205658 5.742284
444.454987 9.920635
444.829132 10.20833
444.972626 10.50694
445.357574 13.34205
447.301544 3.0
853.487915 3.791667
855.443054 160.213898
855.734741 5.0625
855.88739 6.0
856.096558 12.46371
858.158691 5.88587
858.708923 8.166667

>ms2peaks
110.095741 22.52252
177.3629 20.29281
178.081467 272.802887
178.285355 9.642095
178.513977 7.746795
178.550201 12.03947
178.759445 11.02671
234.147537 77.197243
254.59256 3.333333
256.071228 11.33426
256.130646 446.671997
256.388641 5.088768
256.540771 3.266667
256.986725 6.533333
257.177032 24.353861
257.358826 10.33333
258.963074 7.351852
300.224518 12.72464
300.31192 5.0
300.598358 2.695513
301.43985 20.91872
302.135498 2736.166016
302.208557 13.50579
302.247284 8.962963
302.29776 13.16346
302.33194 6.382936
302.519592 5.827381
302.586182 13.08681
302.822296 5.120098
303.258118 4.694444
303.319275 4.225
303.549011 9.852273
304.179688 17.065479
304.59848 7.66821
304.826752 3.666667
393.174774 13.47738
402.173645 17.019609
411.21405 10.33333
425.234406 17.44907
432.226135 2.337121
436.389709 22.576509
436.433868 11.89879
436.464172 66.271461
436.511261 1.6875
436.546814 15.11782
436.569336 5.097222
436.595367 5.522727
436.634155 13.53218
436.685669 52.296799
436.721985 10.38568
436.765594 11.83712
436.983643 13.49709
437.026947 31.486441
437.223785 37.228031
437.276215 25.53956
437.36499 33.43103
437.44931 7.078432
437.587585 8.673612
437.624817 44.048569
437.744049 9.541667
437.827759 5.688889
438.090576 14.09122
438.413483 25.62822
438.519562 11.36794
439.135559 184.522903
439.177124 122.847099
439.21991 14423.129883
439.302216 127.285004
439.335114 132.419601
439.394043 163.412903
439.470398 120.479599
439.511414 69.879112
439.54007 7.66821
439.552612 41.527672
439.608673 107.348701
439.697174 61.028091
439.728058 11.66848
439.766998 32.27161
439.950134 67.081421
440.0401 85.369217
440.082367 65.064949
440.366547 39.286789
440.775848 25.81303
440.884613 2.14881
441.139679 14.13844
441.328339 5.714285
441.672363 10.21802
441.906616 4.016667
442.242035 6.736111
442.330627 4.681667
443.285461 9.631173
443.311584 8.765873
443.736633 1.6875
443.882904 8.769231
444.010101 3.6
445.505554 5.333333
448.072388 2.041667
450.718323 14.00085
489.772827 7.357143
538.597351 16.301941
594.306396 28.761761
718.35144 15.3373
849.978821 18.972521
855.428589 24.04537
856.42804 81.110451

